*SPEF "IEEE 1481-1998"
*DESIGN "toll_gate"
*DATE "Mon Nov 10 17:51:18 2025"
*VENDOR "Cadence Design Systems, Inc."
*PROGRAM "Innovus"
*VERSION "20.10-p004_1"
*DESIGN_FLOW "PIN_CAP NONE" "NAME_SCOPE LOCAL"
*DIVIDER /
*DELIMITER :
*BUS_DELIMITER []
*T_UNIT 1 NS
*C_UNIT 1 PF
*R_UNIT 1 OHM
*L_UNIT 1 HENRY

// MMMC spef file for corner 'default_rc_corner'

*NAME_MAP

*1 SPCASCAN_N0
*2 clk
*3 reset
*4 sensor_vehicle_enter
*5 sensor_vehicle_exit
*6 scan_en
*7 DFT_sdi_1
*8 DFT_sdi_2
*9 vehicle_id_in[3]
*10 vehicle_id_in[2]
*11 vehicle_id_in[1]
*12 vehicle_id_in[0]
*13 barrier_open_cmd
*14 barrier_close_cmd
*15 DFT_sdo_1
*16 DFT_sdo_2
*17 led_status[1]
*18 led_status[0]
*19 display_out[6]
*20 display_out[5]
*21 display_out[3]
*22 display_out[2]
*23 display_out[1]
*24 display_out[0]
*25 id_to_check[3]
*26 id_to_check[2]
*27 id_to_check[1]
*28 id_to_check[0]
*29 state[1]
*30 state[0]
*31 charge_done
*32 gate_is_closed
*33 id_valid
*34 n_17
*35 n_23
*36 n_25
*37 n_26
*38 n_27
*39 n_28
*40 n_29
*41 n_32
*42 n_33
*43 n_35
*44 n_36
*45 n_39
*46 n_40
*47 n_41
*48 n_42
*49 n_43
*50 n_44
*51 n_45
*52 n_46
*53 n_48
*54 n_49
*55 n_50
*56 n_51
*57 n_56
*58 n_64
*59 n_65
*60 n_68
*61 n_71
*62 n_72
*63 n_82
*64 sufficient_balance
*65 u_account_balance/balance_db\[0\][15]
*66 u_account_balance/balance_db\[0\][14]
*67 u_account_balance/balance_db\[0\][13]
*68 u_account_balance/balance_db\[0\][12]
*69 u_account_balance/balance_db\[0\][11]
*70 u_account_balance/balance_db\[0\][10]
*71 u_account_balance/balance_db\[0\][9]
*72 u_account_balance/balance_db\[0\][8]
*73 u_account_balance/balance_db\[0\][7]
*74 u_account_balance/balance_db\[0\][6]
*75 u_account_balance/balance_db\[0\][5]
*76 u_account_balance/balance_db\[0\][4]
*77 u_account_balance/balance_db\[0\][3]
*78 u_account_balance/balance_db\[0\][2]
*79 u_account_balance/balance_db\[0\][1]
*80 u_account_balance/balance_db\[4\][15]
*81 u_account_balance/balance_db\[4\][14]
*82 u_account_balance/balance_db\[4\][13]
*83 u_account_balance/balance_db\[4\][12]
*84 u_account_balance/balance_db\[4\][11]
*85 u_account_balance/balance_db\[4\][10]
*86 u_account_balance/balance_db\[4\][9]
*87 u_account_balance/balance_db\[4\][8]
*88 u_account_balance/balance_db\[4\][7]
*89 u_account_balance/balance_db\[4\][6]
*90 u_account_balance/balance_db\[4\][5]
*91 u_account_balance/balance_db\[4\][4]
*92 u_account_balance/balance_db\[4\][3]
*93 u_account_balance/balance_db\[4\][2]
*94 u_account_balance/balance_db\[4\][1]
*95 u_account_balance/balance_db\[5\][15]
*96 u_account_balance/balance_db\[5\][14]
*97 u_account_balance/balance_db\[5\][13]
*98 u_account_balance/balance_db\[5\][12]
*99 u_account_balance/balance_db\[5\][11]
*100 u_account_balance/balance_db\[5\][10]
*101 u_account_balance/balance_db\[5\][9]
*102 u_account_balance/balance_db\[5\][8]
*103 u_account_balance/balance_db\[5\][7]
*104 u_account_balance/balance_db\[5\][6]
*105 u_account_balance/balance_db\[5\][5]
*106 u_account_balance/balance_db\[5\][4]
*107 u_account_balance/balance_db\[5\][3]
*108 u_account_balance/balance_db\[5\][2]
*109 u_account_balance/balance_db\[5\][1]
*110 u_account_balance/balance_db\[6\][15]
*111 u_account_balance/balance_db\[6\][14]
*112 u_account_balance/balance_db\[6\][13]
*113 u_account_balance/balance_db\[6\][12]
*114 u_account_balance/balance_db\[6\][11]
*115 u_account_balance/balance_db\[6\][10]
*116 u_account_balance/balance_db\[6\][9]
*117 u_account_balance/balance_db\[6\][8]
*118 u_account_balance/balance_db\[6\][7]
*119 u_account_balance/balance_db\[6\][6]
*120 u_account_balance/balance_db\[6\][5]
*121 u_account_balance/balance_db\[6\][4]
*122 u_account_balance/balance_db\[6\][3]
*123 u_account_balance/balance_db\[6\][2]
*124 u_account_balance/balance_db\[6\][1]
*125 u_account_balance/balance_db\[7\][15]
*126 u_account_balance/balance_db\[7\][14]
*127 u_account_balance/balance_db\[7\][13]
*128 u_account_balance/balance_db\[7\][12]
*129 u_account_balance/balance_db\[7\][11]
*130 u_account_balance/balance_db\[7\][10]
*131 u_account_balance/balance_db\[7\][9]
*132 u_account_balance/balance_db\[7\][8]
*133 u_account_balance/balance_db\[7\][7]
*134 u_account_balance/balance_db\[7\][6]
*135 u_account_balance/balance_db\[7\][5]
*136 u_account_balance/balance_db\[7\][4]
*137 u_account_balance/balance_db\[7\][3]
*138 u_account_balance/balance_db\[7\][2]
*139 u_account_balance/balance_db\[7\][1]
*140 u_account_balance/balance_db\[8\][15]
*141 u_account_balance/balance_db\[8\][14]
*142 u_account_balance/balance_db\[8\][13]
*143 u_account_balance/balance_db\[8\][12]
*144 u_account_balance/balance_db\[8\][11]
*145 u_account_balance/balance_db\[8\][10]
*146 u_account_balance/balance_db\[8\][9]
*147 u_account_balance/balance_db\[8\][8]
*148 u_account_balance/balance_db\[8\][7]
*149 u_account_balance/balance_db\[8\][6]
*150 u_account_balance/balance_db\[8\][5]
*151 u_account_balance/balance_db\[8\][4]
*152 u_account_balance/balance_db\[8\][3]
*153 u_account_balance/balance_db\[8\][2]
*154 u_account_balance/balance_db\[8\][1]
*155 u_account_balance/balance_db\[9\][15]
*156 u_account_balance/balance_db\[9\][14]
*157 u_account_balance/balance_db\[9\][13]
*158 u_account_balance/balance_db\[9\][12]
*159 u_account_balance/balance_db\[9\][11]
*160 u_account_balance/balance_db\[9\][10]
*161 u_account_balance/balance_db\[9\][9]
*162 u_account_balance/balance_db\[9\][8]
*163 u_account_balance/balance_db\[9\][7]
*164 u_account_balance/balance_db\[9\][6]
*165 u_account_balance/balance_db\[9\][5]
*166 u_account_balance/balance_db\[9\][4]
*167 u_account_balance/balance_db\[9\][3]
*168 u_account_balance/balance_db\[9\][2]
*169 u_account_balance/balance_db\[9\][1]
*170 u_account_balance/balance_db\[10\][15]
*171 u_account_balance/balance_db\[10\][14]
*172 u_account_balance/balance_db\[10\][13]
*173 u_account_balance/balance_db\[10\][12]
*174 u_account_balance/balance_db\[10\][11]
*175 u_account_balance/balance_db\[10\][10]
*176 u_account_balance/balance_db\[10\][9]
*177 u_account_balance/balance_db\[10\][8]
*178 u_account_balance/balance_db\[10\][7]
*179 u_account_balance/balance_db\[10\][6]
*180 u_account_balance/balance_db\[10\][5]
*181 u_account_balance/balance_db\[10\][4]
*182 u_account_balance/balance_db\[10\][3]
*183 u_account_balance/balance_db\[10\][2]
*184 u_account_balance/balance_db\[10\][1]
*185 u_account_balance/balance_db\[11\][15]
*186 u_account_balance/balance_db\[11\][14]
*187 u_account_balance/balance_db\[11\][13]
*188 u_account_balance/balance_db\[11\][12]
*189 u_account_balance/balance_db\[11\][11]
*190 u_account_balance/balance_db\[11\][10]
*191 u_account_balance/balance_db\[11\][9]
*192 u_account_balance/balance_db\[11\][8]
*193 u_account_balance/balance_db\[11\][7]
*194 u_account_balance/balance_db\[11\][6]
*195 u_account_balance/balance_db\[11\][5]
*196 u_account_balance/balance_db\[11\][4]
*197 u_account_balance/balance_db\[11\][3]
*198 u_account_balance/balance_db\[11\][2]
*199 u_account_balance/balance_db\[11\][1]
*200 u_account_balance/balance_db\[12\][15]
*201 u_account_balance/balance_db\[12\][14]
*202 u_account_balance/balance_db\[12\][13]
*203 u_account_balance/balance_db\[12\][12]
*204 u_account_balance/balance_db\[12\][11]
*205 u_account_balance/balance_db\[12\][10]
*206 u_account_balance/balance_db\[12\][9]
*207 u_account_balance/balance_db\[12\][8]
*208 u_account_balance/balance_db\[12\][7]
*209 u_account_balance/balance_db\[12\][6]
*210 u_account_balance/balance_db\[12\][5]
*211 u_account_balance/balance_db\[12\][4]
*212 u_account_balance/balance_db\[12\][3]
*213 u_account_balance/balance_db\[12\][2]
*214 u_account_balance/balance_db\[12\][1]
*215 u_account_balance/balance_db\[13\][15]
*216 u_account_balance/balance_db\[13\][14]
*217 u_account_balance/balance_db\[13\][13]
*218 u_account_balance/balance_db\[13\][12]
*219 u_account_balance/balance_db\[13\][11]
*220 u_account_balance/balance_db\[13\][10]
*221 u_account_balance/balance_db\[13\][9]
*222 u_account_balance/balance_db\[13\][8]
*223 u_account_balance/balance_db\[13\][7]
*224 u_account_balance/balance_db\[13\][6]
*225 u_account_balance/balance_db\[13\][5]
*226 u_account_balance/balance_db\[13\][4]
*227 u_account_balance/balance_db\[13\][3]
*228 u_account_balance/balance_db\[13\][2]
*229 u_account_balance/balance_db\[13\][1]
*230 u_account_balance/balance_db\[14\][15]
*231 u_account_balance/balance_db\[14\][14]
*232 u_account_balance/balance_db\[14\][13]
*233 u_account_balance/balance_db\[14\][12]
*234 u_account_balance/balance_db\[14\][11]
*235 u_account_balance/balance_db\[14\][10]
*236 u_account_balance/balance_db\[14\][9]
*237 u_account_balance/balance_db\[14\][8]
*238 u_account_balance/balance_db\[14\][7]
*239 u_account_balance/balance_db\[14\][6]
*240 u_account_balance/balance_db\[14\][5]
*241 u_account_balance/balance_db\[14\][4]
*242 u_account_balance/balance_db\[14\][3]
*243 u_account_balance/balance_db\[14\][2]
*244 u_account_balance/balance_db\[14\][1]
*245 u_account_balance/balance_db\[15\][15]
*246 u_account_balance/balance_db\[15\][14]
*247 u_account_balance/balance_db\[15\][13]
*248 u_account_balance/balance_db\[15\][12]
*249 u_account_balance/balance_db\[15\][11]
*250 u_account_balance/balance_db\[15\][10]
*251 u_account_balance/balance_db\[15\][9]
*252 u_account_balance/balance_db\[15\][8]
*253 u_account_balance/balance_db\[15\][7]
*254 u_account_balance/balance_db\[15\][6]
*255 u_account_balance/balance_db\[15\][5]
*256 u_account_balance/balance_db\[15\][4]
*257 u_account_balance/balance_db\[15\][3]
*258 u_account_balance/balance_db\[15\][2]
*259 u_account_balance/balance_db\[15\][1]
*260 u_account_balance/balance_db\[3\][14]
*261 u_account_balance/balance_db\[3\][13]
*262 u_account_balance/balance_db\[3\][12]
*263 u_account_balance/balance_db\[3\][11]
*264 u_account_balance/balance_db\[3\][10]
*265 u_account_balance/balance_db\[3\][9]
*266 u_account_balance/balance_db\[3\][8]
*267 u_account_balance/balance_db\[3\][7]
*268 u_account_balance/balance_db\[3\][6]
*269 u_account_balance/balance_db\[3\][5]
*270 u_account_balance/balance_db\[3\][4]
*271 u_account_balance/balance_db\[3\][3]
*272 u_account_balance/balance_db\[3\][1]
*273 u_account_balance/balance_db\[1\][14]
*274 u_account_balance/balance_db\[1\][13]
*275 u_account_balance/balance_db\[1\][12]
*276 u_account_balance/balance_db\[1\][11]
*277 u_account_balance/balance_db\[1\][10]
*278 u_account_balance/balance_db\[1\][9]
*279 u_account_balance/balance_db\[1\][8]
*280 u_account_balance/balance_db\[1\][7]
*281 u_account_balance/balance_db\[1\][6]
*282 u_account_balance/balance_db\[1\][5]
*283 u_account_balance/balance_db\[1\][4]
*284 u_account_balance/balance_db\[1\][3]
*285 u_account_balance/balance_db\[1\][2]
*286 u_account_balance/balance_db\[1\][1]
*287 u_account_balance/balance_db\[2\][13]
*288 u_account_balance/balance_db\[2\][12]
*289 u_account_balance/balance_db\[2\][11]
*290 u_account_balance/balance_db\[2\][10]
*291 u_account_balance/balance_db\[2\][9]
*292 u_account_balance/balance_db\[2\][8]
*293 u_account_balance/balance_db\[2\][7]
*294 u_account_balance/balance_db\[2\][6]
*295 u_account_balance/balance_db\[2\][5]
*296 u_account_balance/balance_db\[2\][4]
*297 u_account_balance/balance_db\[2\][3]
*298 u_account_balance/balance_db\[2\][2]
*299 u_account_balance/balance_db\[2\][1]
*300 u_account_balance/n_6
*301 u_account_balance/n_80
*302 u_account_balance/n_96
*303 u_account_balance/n_115
*304 u_account_balance/n_133
*305 u_account_balance/n_146
*306 u_account_balance/n_149
*307 u_account_balance/n_151
*308 u_account_balance/n_201
*309 u_account_balance/n_208
*310 u_account_balance/n_232
*311 u_account_balance/n_242
*312 u_account_balance/n_256
*313 u_account_balance/n_279
*314 u_account_balance/n_368
*315 u_account_balance/n_369
*316 u_account_balance/n_370
*317 u_account_balance/n_383
*318 u_account_balance/n_393
*319 u_account_balance/n_396
*320 u_account_balance/n_397
*321 u_account_balance/n_409
*322 u_account_balance/n_410
*323 u_account_balance/n_411
*324 u_account_balance/n_412
*325 u_account_balance/n_413
*326 u_account_balance/n_414
*327 u_account_balance/n_415
*328 u_account_balance/n_416
*329 u_account_balance/n_417
*330 u_account_balance/n_418
*331 u_account_balance/n_419
*332 u_account_balance/n_420
*333 u_account_balance/n_421
*334 u_account_balance/n_422
*335 u_account_balance/n_423
*336 u_account_balance/n_424
*337 u_account_balance/n_425
*338 u_account_balance/n_426
*339 u_account_balance/n_427
*340 u_account_balance/n_428
*341 u_account_balance/n_429
*342 u_account_balance/n_430
*343 u_account_balance/n_431
*344 u_account_balance/n_432
*345 u_account_balance/n_433
*346 u_account_balance/n_434
*347 u_account_balance/n_435
*348 u_account_balance/n_436
*349 u_account_balance/n_437
*350 u_account_balance/n_438
*351 u_account_balance/n_439
*352 u_account_balance/n_440
*353 u_account_balance/n_441
*354 u_account_balance/n_442
*355 u_account_balance/n_443
*356 u_account_balance/n_444
*357 u_account_balance/n_445
*358 u_account_balance/n_446
*359 u_account_balance/n_448
*360 u_account_balance/n_449
*361 u_account_balance/n_450
*362 u_account_balance/n_451
*363 u_account_balance/n_452
*364 u_account_balance/n_453
*365 u_account_balance/n_454
*366 u_account_balance/n_455
*367 u_account_balance/n_456
*368 u_account_balance/n_457
*369 u_account_balance/n_458
*370 u_account_balance/n_459
*371 u_account_balance/n_460
*372 u_account_balance/n_461
*373 u_account_balance/n_463
*374 u_account_balance/n_464
*375 u_account_balance/n_465
*376 u_account_balance/n_467
*377 u_account_balance/n_468
*378 u_account_balance/n_469
*379 u_account_balance/n_470
*380 u_account_balance/n_471
*381 u_account_balance/n_472
*382 u_account_balance/n_473
*383 u_account_balance/n_474
*384 u_account_balance/n_475
*385 u_account_balance/n_476
*386 u_account_balance/n_477
*387 u_account_balance/n_478
*388 u_account_balance/n_479
*389 u_account_balance/n_480
*390 u_account_balance/n_481
*391 u_account_balance/n_482
*392 u_account_balance/n_483
*393 u_account_balance/n_484
*394 u_account_balance/n_485
*395 u_account_balance/n_487
*396 u_account_balance/n_488
*397 u_account_balance/n_489
*398 u_account_balance/n_490
*399 u_account_balance/n_491
*400 u_account_balance/n_495
*401 u_account_balance/n_496
*402 u_account_balance/n_497
*403 u_account_balance/n_498
*404 u_account_balance/n_499
*405 u_account_balance/n_500
*406 u_account_balance/n_501
*407 u_account_balance/n_502
*408 u_account_balance/n_503
*409 u_account_balance/n_504
*410 u_account_balance/n_506
*411 u_account_balance/n_508
*412 u_account_balance/n_509
*413 u_account_balance/n_510
*414 u_account_balance/n_511
*415 u_account_balance/n_512
*416 u_account_balance/n_514
*417 u_account_balance/n_515
*418 u_account_balance/n_516
*419 u_account_balance/n_517
*420 u_account_balance/n_519
*421 u_account_balance/n_520
*422 u_account_balance/n_521
*423 u_account_balance/n_522
*424 u_account_balance/n_523
*425 u_account_balance/n_524
*426 u_account_balance/n_525
*427 u_account_balance/n_526
*428 u_account_balance/n_527
*429 u_account_balance/n_528
*430 u_account_balance/n_529
*431 u_account_balance/n_530
*432 u_account_balance/n_531
*433 u_account_balance/n_533
*434 u_account_balance/n_534
*435 u_account_balance/n_535
*436 u_account_balance/n_536
*437 u_account_balance/n_537
*438 u_account_balance/n_538
*439 u_account_balance/n_539
*440 u_account_balance/n_540
*441 u_account_balance/n_541
*442 u_account_balance/n_542
*443 u_account_balance/n_543
*444 u_account_balance/n_544
*445 u_account_balance/n_545
*446 u_account_balance/n_546
*447 u_account_balance/n_547
*448 u_account_balance/n_548
*449 u_account_balance/n_549
*450 u_account_balance/n_550
*451 u_account_balance/n_551
*452 u_account_balance/n_552
*453 u_account_balance/n_553
*454 u_account_balance/n_554
*455 u_account_balance/n_555
*456 u_account_balance/n_556
*457 u_account_balance/n_557
*458 u_account_balance/n_558
*459 u_account_balance/n_560
*460 u_account_balance/n_561
*461 u_account_balance/n_562
*462 u_account_balance/n_564
*463 u_account_balance/n_565
*464 u_account_balance/n_566
*465 u_account_balance/n_567
*466 u_account_balance/n_568
*467 u_account_balance/n_570
*468 u_account_balance/n_572
*469 u_account_balance/n_574
*470 u_account_balance/n_575
*471 u_account_balance/n_576
*472 u_account_balance/n_578
*473 u_account_balance/n_579
*474 u_account_balance/n_580
*475 u_account_balance/n_581
*476 u_account_balance/n_582
*477 u_account_balance/n_583
*478 u_account_balance/n_584
*479 u_account_balance/n_585
*480 u_account_balance/n_586
*481 u_account_balance/n_587
*482 u_account_balance/n_588
*483 u_account_balance/n_589
*484 u_account_balance/n_590
*485 u_account_balance/n_591
*486 u_account_balance/n_592
*487 u_account_balance/n_593
*488 u_account_balance/n_594
*489 u_account_balance/n_596
*490 u_account_balance/n_597
*491 u_account_balance/n_598
*492 u_account_balance/n_599
*493 u_account_balance/n_600
*494 u_account_balance/n_601
*495 u_account_balance/n_602
*496 u_account_balance/n_603
*497 u_account_balance/n_604
*498 u_account_balance/n_605
*499 u_account_balance/n_606
*500 u_account_balance/n_607
*501 u_account_balance/n_608
*502 u_account_balance/n_609
*503 u_account_balance/n_610
*504 u_account_balance/n_612
*505 u_account_balance/n_613
*506 u_account_balance/n_614
*507 u_account_balance/n_615
*508 u_account_balance/n_616
*509 u_account_balance/n_617
*510 u_account_balance/n_618
*511 u_account_balance/n_619
*512 u_account_balance/n_620
*513 u_account_balance/n_621
*514 u_account_balance/n_623
*515 u_account_balance/n_624
*516 u_account_balance/n_626
*517 u_account_balance/n_627
*518 u_account_balance/n_628
*519 u_account_balance/n_629
*520 u_account_balance/n_630
*521 u_account_balance/n_631
*522 u_account_balance/n_632
*523 u_account_balance/n_633
*524 u_account_balance/n_634
*525 u_account_balance/n_635
*526 u_account_balance/n_637
*527 u_account_balance/n_639
*528 u_account_balance/n_640
*529 u_account_balance/n_641
*530 u_account_balance/n_642
*531 u_account_balance/n_643
*532 u_account_balance/n_644
*533 u_account_balance/n_645
*534 u_account_balance/n_646
*535 u_account_balance/n_647
*536 u_account_balance/n_648
*537 u_account_balance/n_649
*538 u_account_balance/n_650
*539 u_account_balance/n_651
*540 u_account_balance/n_652
*541 u_account_balance/n_653
*542 u_account_balance/n_654
*543 u_account_balance/n_655
*544 u_account_balance/n_656
*545 u_account_balance/n_657
*546 u_account_balance/n_658
*547 u_account_balance/n_659
*548 u_account_balance/n_660
*549 u_account_balance/n_661
*550 u_account_balance/n_662
*551 u_account_balance/n_663
*552 u_account_balance/n_664
*553 u_account_balance/n_666
*554 u_account_balance/n_667
*555 u_account_balance/n_668
*556 u_account_balance/n_669
*557 u_account_balance/n_671
*558 u_account_balance/n_672
*559 u_account_balance/n_673
*560 u_account_balance/n_674
*561 u_account_balance/n_675
*562 u_account_balance/n_676
*563 u_account_balance/n_677
*564 u_account_balance/n_678
*565 u_account_balance/n_679
*566 u_account_balance/n_680
*567 u_account_balance/n_681
*568 u_account_balance/n_682
*569 u_account_balance/n_683
*570 u_account_balance/n_684
*571 u_account_balance/n_685
*572 u_account_balance/n_686
*573 u_account_balance/n_687
*574 u_account_balance/n_688
*575 u_account_balance/n_689
*576 u_account_balance/n_690
*577 u_account_balance/n_691
*578 u_account_balance/n_692
*579 u_account_balance/n_693
*580 u_account_balance/n_694
*581 u_account_balance/n_695
*582 u_account_balance/n_696
*583 u_account_balance/n_697
*584 u_account_balance/n_698
*585 u_account_balance/n_699
*586 u_account_balance/n_700
*587 u_account_balance/n_701
*588 u_account_balance/n_702
*589 u_account_balance/n_703
*590 u_account_balance/n_704
*591 u_account_balance/n_705
*592 u_account_balance/n_706
*593 u_account_balance/n_707
*594 u_account_balance/n_708
*595 u_account_balance/n_709
*596 u_account_balance/n_710
*597 u_account_balance/n_711
*598 u_account_balance/n_712
*599 u_account_balance/n_714
*600 u_account_balance/n_715
*601 u_account_balance/n_716
*602 u_account_balance/n_717
*603 u_account_balance/n_718
*604 u_account_balance/n_719
*605 u_account_balance/n_720
*606 u_account_balance/n_721
*607 u_account_balance/n_722
*608 u_account_balance/n_723
*609 u_account_balance/n_724
*610 u_account_balance/n_725
*611 u_account_balance/n_726
*612 u_account_balance/n_727
*613 u_account_balance/n_728
*614 u_account_balance/n_729
*615 u_account_balance/n_730
*616 u_account_balance/n_731
*617 u_account_balance/n_732
*618 u_account_balance/n_733
*619 u_account_balance/n_734
*620 u_account_balance/n_735
*621 u_account_balance/n_736
*622 u_account_balance/n_739
*623 u_account_balance/n_742
*624 u_account_balance/n_743
*625 u_account_balance/n_744
*626 u_account_balance/n_745
*627 u_account_balance/n_746
*628 u_account_balance/n_747
*629 u_account_balance/n_748
*630 u_account_balance/n_749
*631 u_account_balance/n_750
*632 u_account_balance/n_751
*633 u_account_balance/n_752
*634 u_account_balance/n_753
*635 u_account_balance/n_754
*636 u_account_balance/n_755
*637 u_account_balance/n_756
*638 u_account_balance/n_757
*639 u_account_balance/n_758
*640 u_account_balance/n_760
*641 u_account_balance/n_762
*642 u_account_balance/n_763
*643 u_account_balance/n_764
*644 u_account_balance/n_765
*645 u_account_balance/n_766
*646 u_account_balance/n_767
*647 u_account_balance/n_768
*648 u_account_balance/n_769
*649 u_account_balance/n_770
*650 u_account_balance/n_771
*651 u_account_balance/n_773
*652 u_account_balance/n_779
*653 u_account_balance/n_780
*654 u_account_balance/n_781
*655 u_account_balance/n_784
*656 u_account_balance/n_785
*657 u_account_balance/n_786
*658 u_account_balance/n_788
*659 u_account_balance/n_789
*660 u_account_balance/n_790
*661 u_account_balance/n_791
*662 u_account_balance/n_792
*663 u_account_balance/n_793
*664 u_account_balance/n_794
*665 u_account_balance/n_795
*666 u_account_balance/n_796
*667 u_account_balance/n_797
*668 u_account_balance/n_798
*669 u_account_balance/n_799
*670 u_account_balance/n_800
*671 u_account_balance/n_802
*672 u_account_balance/n_803
*673 u_account_balance/n_804
*674 u_account_balance/n_805
*675 u_account_balance/n_806
*676 u_account_balance/n_807
*677 u_account_balance/n_808
*678 u_account_balance/n_809
*679 u_account_balance/n_810
*680 u_account_balance/n_811
*681 u_account_balance/n_812
*682 u_account_balance/n_813
*683 u_account_balance/n_814
*684 u_account_balance/n_815
*685 u_account_balance/n_816
*686 u_account_balance/n_817
*687 u_account_balance/n_818
*688 u_account_balance/n_819
*689 u_account_balance/n_820
*690 u_account_balance/n_821
*691 u_account_balance/n_1938_BAR
*692 u_account_balance/n_1939_BAR
*693 u_account_balance/n_1948_BAR
*694 u_account_balance/n_1949_BAR
*695 u_barrier_ctrl/barrier_position_counter[1]
*696 u_barrier_ctrl/barrier_position_counter[0]
*697 u_barrier_ctrl/n_3
*698 u_barrier_ctrl/n_6
*699 u_barrier_ctrl/n_9
*700 u_barrier_ctrl/n_10
*701 u_barrier_ctrl/n_20
*702 u_barrier_ctrl/n_21
*703 u_barrier_ctrl/n_28
*704 u_barrier_ctrl/n_29
*705 u_barrier_ctrl/n_30
*706 u_barrier_ctrl/n_34
*707 u_barrier_ctrl/n_35
*708 u_barrier_ctrl/n_36
*709 u_barrier_ctrl/n_37
*710 u_barrier_ctrl/n_39
*711 u_barrier_ctrl/n_40
*712 u_barrier_ctrl/n_41
*713 u_barrier_ctrl/n_42
*714 u_barrier_ctrl/n_44
*715 u_barrier_ctrl/n_45
*716 u_barrier_ctrl/n_46
*717 u_vehicle_interface/n_8
*718 u_vehicle_interface/n_10
*719 u_vehicle_interface/n_11
*720 u_vehicle_interface/n_12
*721 u_vehicle_interface/n_13
*722 u_vehicle_interface/n_28
*723 FE_DBTC0_n_68
*724 u_account_balance/balance_db_reg\[0\]\[1\]
*725 u_account_balance/balance_db_reg\[0\]\[2\]
*726 u_account_balance/balance_db_reg\[0\]\[3\]
*727 u_account_balance/balance_db_reg\[0\]\[4\]
*728 u_account_balance/balance_db_reg\[0\]\[5\]
*729 u_account_balance/balance_db_reg\[0\]\[6\]
*730 u_account_balance/balance_db_reg\[0\]\[7\]
*731 u_account_balance/balance_db_reg\[0\]\[8\]
*732 u_account_balance/balance_db_reg\[0\]\[9\]
*733 u_account_balance/balance_db_reg\[0\]\[10\]
*734 u_account_balance/balance_db_reg\[0\]\[11\]
*735 u_account_balance/balance_db_reg\[0\]\[12\]
*736 u_account_balance/balance_db_reg\[0\]\[13\]
*737 u_account_balance/balance_db_reg\[0\]\[14\]
*738 u_account_balance/balance_db_reg\[0\]\[15\]
*739 u_account_balance/balance_db_reg\[4\]\[1\]
*740 u_account_balance/balance_db_reg\[4\]\[2\]
*741 u_account_balance/balance_db_reg\[4\]\[3\]
*742 u_account_balance/balance_db_reg\[4\]\[4\]
*743 u_account_balance/balance_db_reg\[4\]\[5\]
*744 u_account_balance/balance_db_reg\[4\]\[6\]
*745 u_account_balance/balance_db_reg\[4\]\[7\]
*746 u_account_balance/balance_db_reg\[4\]\[8\]
*747 u_account_balance/balance_db_reg\[4\]\[9\]
*748 u_account_balance/balance_db_reg\[4\]\[10\]
*749 u_account_balance/balance_db_reg\[4\]\[11\]
*750 u_account_balance/balance_db_reg\[4\]\[12\]
*751 u_account_balance/balance_db_reg\[4\]\[13\]
*752 u_account_balance/balance_db_reg\[4\]\[14\]
*753 u_account_balance/balance_db_reg\[4\]\[15\]
*754 u_account_balance/balance_db_reg\[5\]\[1\]
*755 u_account_balance/balance_db_reg\[5\]\[2\]
*756 u_account_balance/balance_db_reg\[5\]\[3\]
*757 u_account_balance/balance_db_reg\[5\]\[4\]
*758 u_account_balance/balance_db_reg\[5\]\[5\]
*759 u_account_balance/balance_db_reg\[5\]\[6\]
*760 u_account_balance/balance_db_reg\[5\]\[7\]
*761 u_account_balance/balance_db_reg\[5\]\[8\]
*762 u_account_balance/balance_db_reg\[5\]\[9\]
*763 u_account_balance/balance_db_reg\[5\]\[10\]
*764 u_account_balance/balance_db_reg\[5\]\[11\]
*765 u_account_balance/balance_db_reg\[5\]\[12\]
*766 u_account_balance/balance_db_reg\[5\]\[13\]
*767 u_account_balance/balance_db_reg\[5\]\[14\]
*768 u_account_balance/balance_db_reg\[5\]\[15\]
*769 u_account_balance/balance_db_reg\[6\]\[1\]
*770 u_account_balance/balance_db_reg\[6\]\[2\]
*771 u_account_balance/balance_db_reg\[6\]\[3\]
*772 u_account_balance/balance_db_reg\[6\]\[4\]
*773 u_account_balance/balance_db_reg\[6\]\[5\]
*774 u_account_balance/balance_db_reg\[6\]\[6\]
*775 u_account_balance/balance_db_reg\[6\]\[7\]
*776 u_account_balance/balance_db_reg\[6\]\[8\]
*777 u_account_balance/balance_db_reg\[6\]\[9\]
*778 u_account_balance/balance_db_reg\[6\]\[10\]
*779 u_account_balance/balance_db_reg\[6\]\[11\]
*780 u_account_balance/balance_db_reg\[6\]\[12\]
*781 u_account_balance/balance_db_reg\[6\]\[13\]
*782 u_account_balance/balance_db_reg\[6\]\[14\]
*783 u_account_balance/balance_db_reg\[6\]\[15\]
*784 u_account_balance/balance_db_reg\[7\]\[1\]
*785 u_account_balance/balance_db_reg\[7\]\[2\]
*786 u_account_balance/balance_db_reg\[7\]\[3\]
*787 u_account_balance/balance_db_reg\[7\]\[4\]
*788 u_account_balance/balance_db_reg\[7\]\[5\]
*789 u_account_balance/balance_db_reg\[7\]\[6\]
*790 u_account_balance/balance_db_reg\[7\]\[7\]
*791 u_account_balance/balance_db_reg\[7\]\[8\]
*792 u_account_balance/balance_db_reg\[7\]\[9\]
*793 u_account_balance/balance_db_reg\[7\]\[10\]
*794 u_account_balance/balance_db_reg\[7\]\[11\]
*795 u_account_balance/balance_db_reg\[7\]\[12\]
*796 u_account_balance/balance_db_reg\[7\]\[13\]
*797 u_account_balance/balance_db_reg\[7\]\[14\]
*798 u_account_balance/balance_db_reg\[7\]\[15\]
*799 u_account_balance/balance_db_reg\[8\]\[1\]
*800 u_account_balance/balance_db_reg\[8\]\[2\]
*801 u_account_balance/balance_db_reg\[8\]\[3\]
*802 u_account_balance/balance_db_reg\[8\]\[4\]
*803 u_account_balance/balance_db_reg\[8\]\[5\]
*804 u_account_balance/balance_db_reg\[8\]\[6\]
*805 u_account_balance/balance_db_reg\[8\]\[7\]
*806 u_account_balance/balance_db_reg\[8\]\[8\]
*807 u_account_balance/balance_db_reg\[8\]\[9\]
*808 u_account_balance/balance_db_reg\[8\]\[10\]
*809 u_account_balance/balance_db_reg\[8\]\[11\]
*810 u_account_balance/balance_db_reg\[8\]\[12\]
*811 u_account_balance/balance_db_reg\[8\]\[13\]
*812 u_account_balance/balance_db_reg\[8\]\[14\]
*813 u_account_balance/balance_db_reg\[8\]\[15\]
*814 u_account_balance/balance_db_reg\[9\]\[1\]
*815 u_account_balance/balance_db_reg\[9\]\[2\]
*816 u_account_balance/balance_db_reg\[9\]\[3\]
*817 u_account_balance/balance_db_reg\[9\]\[4\]
*818 u_account_balance/balance_db_reg\[9\]\[5\]
*819 u_account_balance/balance_db_reg\[9\]\[6\]
*820 u_account_balance/balance_db_reg\[9\]\[7\]
*821 u_account_balance/balance_db_reg\[9\]\[8\]
*822 u_account_balance/balance_db_reg\[9\]\[9\]
*823 u_account_balance/balance_db_reg\[9\]\[10\]
*824 u_account_balance/balance_db_reg\[9\]\[11\]
*825 u_account_balance/balance_db_reg\[9\]\[12\]
*826 u_account_balance/balance_db_reg\[9\]\[13\]
*827 u_account_balance/balance_db_reg\[9\]\[14\]
*828 u_account_balance/balance_db_reg\[9\]\[15\]
*829 u_account_balance/balance_db_reg\[10\]\[1\]
*830 u_account_balance/balance_db_reg\[10\]\[2\]
*831 u_account_balance/balance_db_reg\[10\]\[3\]
*832 u_account_balance/balance_db_reg\[10\]\[4\]
*833 u_account_balance/balance_db_reg\[10\]\[5\]
*834 u_account_balance/balance_db_reg\[10\]\[6\]
*835 u_account_balance/balance_db_reg\[10\]\[7\]
*836 u_account_balance/balance_db_reg\[10\]\[8\]
*837 u_account_balance/balance_db_reg\[10\]\[9\]
*838 u_account_balance/balance_db_reg\[10\]\[10\]
*839 u_account_balance/balance_db_reg\[10\]\[11\]
*840 u_account_balance/balance_db_reg\[10\]\[12\]
*841 u_account_balance/balance_db_reg\[10\]\[13\]
*842 u_account_balance/balance_db_reg\[10\]\[14\]
*843 u_account_balance/balance_db_reg\[10\]\[15\]
*844 u_account_balance/balance_db_reg\[11\]\[1\]
*845 u_account_balance/balance_db_reg\[11\]\[2\]
*846 u_account_balance/balance_db_reg\[11\]\[3\]
*847 u_account_balance/balance_db_reg\[11\]\[4\]
*848 u_account_balance/balance_db_reg\[11\]\[5\]
*849 u_account_balance/balance_db_reg\[11\]\[6\]
*850 u_account_balance/balance_db_reg\[11\]\[7\]
*851 u_account_balance/balance_db_reg\[11\]\[8\]
*852 u_account_balance/balance_db_reg\[11\]\[9\]
*853 u_account_balance/balance_db_reg\[11\]\[10\]
*854 u_account_balance/balance_db_reg\[11\]\[11\]
*855 u_account_balance/balance_db_reg\[11\]\[12\]
*856 u_account_balance/balance_db_reg\[11\]\[13\]
*857 u_account_balance/balance_db_reg\[11\]\[14\]
*858 u_account_balance/balance_db_reg\[11\]\[15\]
*859 u_account_balance/balance_db_reg\[12\]\[1\]
*860 u_account_balance/balance_db_reg\[12\]\[2\]
*861 u_account_balance/balance_db_reg\[12\]\[3\]
*862 u_account_balance/balance_db_reg\[12\]\[4\]
*863 u_account_balance/balance_db_reg\[12\]\[5\]
*864 u_account_balance/balance_db_reg\[12\]\[6\]
*865 u_account_balance/balance_db_reg\[12\]\[7\]
*866 u_account_balance/balance_db_reg\[12\]\[8\]
*867 u_account_balance/balance_db_reg\[12\]\[9\]
*868 u_account_balance/balance_db_reg\[12\]\[10\]
*869 u_account_balance/balance_db_reg\[12\]\[11\]
*870 u_account_balance/balance_db_reg\[12\]\[12\]
*871 u_account_balance/balance_db_reg\[12\]\[13\]
*872 u_account_balance/balance_db_reg\[12\]\[14\]
*873 u_account_balance/balance_db_reg\[12\]\[15\]
*874 u_account_balance/balance_db_reg\[13\]\[1\]
*875 u_account_balance/balance_db_reg\[13\]\[2\]
*876 u_account_balance/balance_db_reg\[13\]\[3\]
*877 u_account_balance/balance_db_reg\[13\]\[4\]
*878 u_account_balance/balance_db_reg\[13\]\[5\]
*879 u_account_balance/balance_db_reg\[13\]\[6\]
*880 u_account_balance/balance_db_reg\[13\]\[7\]
*881 u_account_balance/balance_db_reg\[13\]\[8\]
*882 u_account_balance/balance_db_reg\[13\]\[9\]
*883 u_account_balance/balance_db_reg\[13\]\[10\]
*884 u_account_balance/balance_db_reg\[13\]\[11\]
*885 u_account_balance/balance_db_reg\[13\]\[12\]
*886 u_account_balance/balance_db_reg\[13\]\[13\]
*887 u_account_balance/balance_db_reg\[13\]\[14\]
*888 u_account_balance/balance_db_reg\[13\]\[15\]
*889 u_account_balance/balance_db_reg\[14\]\[1\]
*890 u_account_balance/balance_db_reg\[14\]\[2\]
*891 u_account_balance/balance_db_reg\[14\]\[3\]
*892 u_account_balance/balance_db_reg\[14\]\[4\]
*893 u_account_balance/balance_db_reg\[14\]\[5\]
*894 u_account_balance/balance_db_reg\[14\]\[6\]
*895 u_account_balance/balance_db_reg\[14\]\[7\]
*896 u_account_balance/balance_db_reg\[14\]\[8\]
*897 u_account_balance/balance_db_reg\[14\]\[9\]
*898 u_account_balance/balance_db_reg\[14\]\[10\]
*899 u_account_balance/balance_db_reg\[14\]\[11\]
*900 u_account_balance/balance_db_reg\[14\]\[12\]
*901 u_account_balance/balance_db_reg\[14\]\[13\]
*902 u_account_balance/balance_db_reg\[14\]\[14\]
*903 u_account_balance/balance_db_reg\[14\]\[15\]
*904 u_account_balance/balance_db_reg\[15\]\[1\]
*905 u_account_balance/balance_db_reg\[15\]\[2\]
*906 u_account_balance/balance_db_reg\[15\]\[3\]
*907 u_account_balance/balance_db_reg\[15\]\[4\]
*908 u_account_balance/balance_db_reg\[15\]\[5\]
*909 u_account_balance/balance_db_reg\[15\]\[6\]
*910 u_account_balance/balance_db_reg\[15\]\[7\]
*911 u_account_balance/balance_db_reg\[15\]\[8\]
*912 u_account_balance/balance_db_reg\[15\]\[9\]
*913 u_account_balance/balance_db_reg\[15\]\[10\]
*914 u_account_balance/balance_db_reg\[15\]\[11\]
*915 u_account_balance/balance_db_reg\[15\]\[12\]
*916 u_account_balance/balance_db_reg\[15\]\[13\]
*917 u_account_balance/balance_db_reg\[15\]\[14\]
*918 u_account_balance/balance_db_reg\[15\]\[15\]
*919 u_account_balance/g3408
*920 u_account_balance/g3406
*921 u_account_balance/g3407
*922 u_account_balance/g3403
*923 u_account_balance/g3409
*924 u_account_balance/g3405
*925 u_account_balance/charge_done_reg
*926 u_account_balance/g13137
*927 u_account_balance/g13138
*928 u_account_balance/g13139
*929 u_account_balance/g13140
*930 u_account_balance/g13141
*931 u_account_balance/g13142
*932 u_account_balance/g13143
*933 u_account_balance/g13144
*934 u_account_balance/g13145
*935 u_account_balance/g13146
*936 u_account_balance/g13147
*937 u_account_balance/g13148
*938 u_account_balance/g13149
*939 u_account_balance/g13150
*940 u_account_balance/g13152
*941 u_account_balance/g13153
*942 u_account_balance/g13154
*943 u_account_balance/g13155
*944 u_account_balance/g13156
*945 u_account_balance/g13157
*946 u_account_balance/g13158
*947 u_account_balance/g13159
*948 u_account_balance/g13160
*949 u_account_balance/g13161
*950 u_account_balance/g13162
*951 u_account_balance/g13163
*952 u_account_balance/g13164
*953 u_account_balance/g13165
*954 u_account_balance/g13167
*955 u_account_balance/g13168
*956 u_account_balance/g13170
*957 u_account_balance/g13172
*958 u_account_balance/g13173
*959 u_account_balance/g13174
*960 u_account_balance/g13175
*961 u_account_balance/g13176
*962 u_account_balance/g13177
*963 u_account_balance/g13178
*964 u_account_balance/g13179
*965 u_account_balance/g13180
*966 u_account_balance/g13184
*967 u_account_balance/g13187
*968 u_account_balance/g13188
*969 u_account_balance/g13192
*970 u_account_balance/g13193
*971 u_account_balance/g13194
*972 u_account_balance/g13195
*973 u_account_balance/g13196
*974 u_account_balance/g13197
*975 u_account_balance/g13198
*976 u_account_balance/g13199
*977 u_account_balance/g13200
*978 u_account_balance/g13201
*979 u_account_balance/g13202
*980 u_account_balance/g13203
*981 u_account_balance/g13204
*982 u_account_balance/g13205
*983 u_account_balance/g13206
*984 u_account_balance/g13207
*985 u_account_balance/g13209
*986 u_account_balance/g13210
*987 u_account_balance/g13211
*988 u_account_balance/g13212
*989 u_account_balance/g13213
*990 u_account_balance/g13214
*991 u_account_balance/g13215
*992 u_account_balance/g13216
*993 u_account_balance/g13218
*994 u_account_balance/g13219
*995 u_account_balance/g13220
*996 u_account_balance/g13221
*997 u_account_balance/g13222
*998 u_account_balance/g13223
*999 u_account_balance/g13224
*1000 u_account_balance/g13225
*1001 u_account_balance/g13226
*1002 u_account_balance/g13227
*1003 u_account_balance/g13228
*1004 u_account_balance/g13229
*1005 u_account_balance/g13230
*1006 u_account_balance/g13231
*1007 u_account_balance/g13232
*1008 u_account_balance/g13233
*1009 u_account_balance/g13234
*1010 u_account_balance/g13235
*1011 u_account_balance/g13236
*1012 u_account_balance/g13237
*1013 u_account_balance/g13238
*1014 u_account_balance/g13239
*1015 u_account_balance/g13240
*1016 u_account_balance/g13241
*1017 u_account_balance/g13242
*1018 u_account_balance/g13243
*1019 u_account_balance/g13244
*1020 u_account_balance/g13245
*1021 u_account_balance/g13246
*1022 u_account_balance/g13247
*1023 u_account_balance/g13248
*1024 u_account_balance/g13249
*1025 u_account_balance/g13250
*1026 u_account_balance/g13251
*1027 u_account_balance/g13252
*1028 u_account_balance/g13253
*1029 u_account_balance/g13254
*1030 u_account_balance/g13255
*1031 u_account_balance/g13256
*1032 u_account_balance/g13257
*1033 u_account_balance/g13258
*1034 u_account_balance/g13259
*1035 u_account_balance/g13260
*1036 u_account_balance/g13261
*1037 u_account_balance/g13262
*1038 u_account_balance/g13264
*1039 u_account_balance/g13265
*1040 u_account_balance/g13266
*1041 u_account_balance/g13267
*1042 u_account_balance/g13269
*1043 u_account_balance/g13270
*1044 u_account_balance/g13271
*1045 u_account_balance/g13272
*1046 u_account_balance/g13273
*1047 u_account_balance/g13274
*1048 u_account_balance/g13275
*1049 u_account_balance/g13276
*1050 u_account_balance/g13277
*1051 u_account_balance/g13278
*1052 u_account_balance/g13279
*1053 u_account_balance/g13280
*1054 u_account_balance/g13281
*1055 u_account_balance/g13282
*1056 u_account_balance/g13283
*1057 u_account_balance/g13284
*1058 u_account_balance/g13285
*1059 u_account_balance/g13286
*1060 u_account_balance/g13287
*1061 u_account_balance/g13288
*1062 u_account_balance/g13289
*1063 u_account_balance/g13290
*1064 u_account_balance/g13291
*1065 u_account_balance/g13292
*1066 u_account_balance/g13293
*1067 u_account_balance/g13294
*1068 u_account_balance/g13296
*1069 u_account_balance/g13298
*1070 u_account_balance/g13299
*1071 u_account_balance/g13300
*1072 u_account_balance/g13301
*1073 u_account_balance/g13302
*1074 u_account_balance/g13303
*1075 u_account_balance/g13304
*1076 u_account_balance/g13305
*1077 u_account_balance/g13306
*1078 u_account_balance/g13307
*1079 u_account_balance/g13309
*1080 u_account_balance/g13310
*1081 u_account_balance/g13312
*1082 u_account_balance/g13313
*1083 u_account_balance/g13314
*1084 u_account_balance/g13315
*1085 u_account_balance/g13316
*1086 u_account_balance/g13317
*1087 u_account_balance/g13318
*1088 u_account_balance/g13319
*1089 u_account_balance/g13320
*1090 u_account_balance/g13321
*1091 u_account_balance/g13323
*1092 u_account_balance/g13324
*1093 u_account_balance/g13325
*1094 u_account_balance/g13326
*1095 u_account_balance/g13327
*1096 u_account_balance/g13328
*1097 u_account_balance/g13329
*1098 u_account_balance/g13330
*1099 u_account_balance/g13331
*1100 u_account_balance/g13332
*1101 u_account_balance/g13333
*1102 u_account_balance/g13334
*1103 u_account_balance/g13335
*1104 u_account_balance/g13336
*1105 u_account_balance/g13337
*1106 u_account_balance/g13339
*1107 u_account_balance/g13340
*1108 u_account_balance/g13341
*1109 u_account_balance/g13342
*1110 u_account_balance/g13343
*1111 u_account_balance/g13344
*1112 u_account_balance/g13345
*1113 u_account_balance/g13346
*1114 u_account_balance/g13347
*1115 u_account_balance/g13348
*1116 u_account_balance/g13349
*1117 u_account_balance/g13350
*1118 u_account_balance/g13351
*1119 u_account_balance/g13352
*1120 u_account_balance/g13353
*1121 u_account_balance/g13354
*1122 u_account_balance/g13355
*1123 u_account_balance/g13357
*1124 u_account_balance/g13358
*1125 u_account_balance/g13359
*1126 u_account_balance/g13361
*1127 u_account_balance/g13363
*1128 u_account_balance/g13365
*1129 u_account_balance/g13366
*1130 u_account_balance/g13367
*1131 u_account_balance/g13368
*1132 u_account_balance/g13369
*1133 u_account_balance/g13371
*1134 u_account_balance/g13372
*1135 u_account_balance/g13373
*1136 u_account_balance/g13375
*1137 u_account_balance/g13376
*1138 u_account_balance/g13377
*1139 u_account_balance/g13378
*1140 u_account_balance/g13379
*1141 u_account_balance/g13380
*1142 u_account_balance/g13381
*1143 u_account_balance/g13382
*1144 u_account_balance/g13383
*1145 u_account_balance/g13384
*1146 u_account_balance/g13385
*1147 u_account_balance/g13386
*1148 u_account_balance/g13387
*1149 u_account_balance/g13388
*1150 u_account_balance/g13389
*1151 u_account_balance/g13390
*1152 u_account_balance/g13391
*1153 u_account_balance/g13392
*1154 u_account_balance/g13394
*1155 u_account_balance/g13395
*1156 u_account_balance/g13396
*1157 u_account_balance/g13397
*1158 u_account_balance/g13398
*1159 u_account_balance/g13399
*1160 u_account_balance/g13401
*1161 u_account_balance/g13402
*1162 u_account_balance/g13403
*1163 u_account_balance/g13404
*1164 u_account_balance/g13405
*1165 u_account_balance/g13406
*1166 u_account_balance/g13407
*1167 u_account_balance/g13408
*1168 u_account_balance/g13409
*1169 u_account_balance/g13410
*1170 u_account_balance/g13411
*1171 u_account_balance/g13412
*1172 u_account_balance/g13413
*1173 u_account_balance/g13414
*1174 u_account_balance/g13415
*1175 u_account_balance/g13416
*1176 u_account_balance/g13418
*1177 u_account_balance/g13419
*1178 u_account_balance/g13420
*1179 u_account_balance/g13421
*1180 u_account_balance/g13422
*1181 u_account_balance/g13424
*1182 u_account_balance/g13426
*1183 u_account_balance/g13427
*1184 u_account_balance/g13428
*1185 u_account_balance/g13429
*1186 u_account_balance/g13430
*1187 u_account_balance/g13431
*1188 u_account_balance/g13432
*1189 u_account_balance/g13434
*1190 u_account_balance/g13435
*1191 u_account_balance/g13437
*1192 u_account_balance/g13438
*1193 u_account_balance/g13442
*1194 u_account_balance/g13443
*1195 u_account_balance/g13444
*1196 u_account_balance/g13445
*1197 u_account_balance/g13446
*1198 u_account_balance/g13447
*1199 u_account_balance/g13449
*1200 u_account_balance/g13450
*1201 u_account_balance/g13451
*1202 u_account_balance/g13452
*1203 u_account_balance/g13453
*1204 u_account_balance/g13454
*1205 u_account_balance/g13455
*1206 u_account_balance/g13456
*1207 u_account_balance/g13457
*1208 u_account_balance/g13458
*1209 u_account_balance/g13459
*1210 u_account_balance/g13460
*1211 u_account_balance/g13461
*1212 u_account_balance/g13462
*1213 u_account_balance/g13463
*1214 u_account_balance/g13464
*1215 u_account_balance/g13465
*1216 u_account_balance/g2
*1217 u_account_balance/g13468
*1218 u_account_balance/g13469
*1219 u_account_balance/balance_db_reg\[1\]\[1\]
*1220 u_account_balance/balance_db_reg\[1\]\[2\]
*1221 u_account_balance/balance_db_reg\[1\]\[3\]
*1222 u_account_balance/balance_db_reg\[1\]\[4\]
*1223 u_account_balance/balance_db_reg\[1\]\[5\]
*1224 u_account_balance/balance_db_reg\[1\]\[6\]
*1225 u_account_balance/balance_db_reg\[1\]\[7\]
*1226 u_account_balance/balance_db_reg\[1\]\[8\]
*1227 u_account_balance/balance_db_reg\[1\]\[9\]
*1228 u_account_balance/balance_db_reg\[1\]\[10\]
*1229 u_account_balance/balance_db_reg\[1\]\[11\]
*1230 u_account_balance/balance_db_reg\[1\]\[12\]
*1231 u_account_balance/balance_db_reg\[1\]\[13\]
*1232 u_account_balance/balance_db_reg\[1\]\[14\]
*1233 u_account_balance/balance_db_reg\[2\]\[1\]
*1234 u_account_balance/balance_db_reg\[2\]\[2\]
*1235 u_account_balance/balance_db_reg\[2\]\[3\]
*1236 u_account_balance/balance_db_reg\[2\]\[4\]
*1237 u_account_balance/balance_db_reg\[2\]\[5\]
*1238 u_account_balance/balance_db_reg\[2\]\[6\]
*1239 u_account_balance/balance_db_reg\[2\]\[7\]
*1240 u_account_balance/balance_db_reg\[2\]\[8\]
*1241 u_account_balance/balance_db_reg\[2\]\[9\]
*1242 u_account_balance/balance_db_reg\[2\]\[10\]
*1243 u_account_balance/balance_db_reg\[2\]\[11\]
*1244 u_account_balance/balance_db_reg\[2\]\[12\]
*1245 u_account_balance/balance_db_reg\[2\]\[13\]
*1246 u_account_balance/balance_db_reg\[2\]\[14\]
*1247 u_account_balance/balance_db_reg\[3\]\[1\]
*1248 u_account_balance/balance_db_reg\[3\]\[2\]
*1249 u_account_balance/balance_db_reg\[3\]\[3\]
*1250 u_account_balance/balance_db_reg\[3\]\[4\]
*1251 u_account_balance/balance_db_reg\[3\]\[5\]
*1252 u_account_balance/balance_db_reg\[3\]\[6\]
*1253 u_account_balance/balance_db_reg\[3\]\[7\]
*1254 u_account_balance/balance_db_reg\[3\]\[8\]
*1255 u_account_balance/balance_db_reg\[3\]\[9\]
*1256 u_account_balance/balance_db_reg\[3\]\[10\]
*1257 u_account_balance/balance_db_reg\[3\]\[11\]
*1258 u_account_balance/balance_db_reg\[3\]\[12\]
*1259 u_account_balance/balance_db_reg\[3\]\[13\]
*1260 u_account_balance/balance_db_reg\[3\]\[14\]
*1261 u_account_balance/g4280
*1262 u_account_balance/g4282
*1263 u_account_balance/g4283
*1264 u_account_balance/g4284
*1265 u_account_balance/g4286
*1266 u_account_balance/g4287
*1267 u_account_balance/g4288
*1268 u_account_balance/g4289
*1269 u_account_balance/g4290
*1270 u_account_balance/g4291
*1271 u_account_balance/g4292
*1272 u_account_balance/g4293
*1273 u_account_balance/g4294
*1274 u_account_balance/g4295
*1275 u_account_balance/g4296
*1276 u_account_balance/g4297
*1277 u_account_balance/g4298
*1278 u_account_balance/g4299
*1279 u_account_balance/g4301
*1280 u_account_balance/g4302
*1281 u_account_balance/g4303
*1282 u_account_balance/g4304
*1283 u_account_balance/g4305
*1284 u_account_balance/g4306
*1285 u_account_balance/g4307
*1286 u_account_balance/g4308
*1287 u_account_balance/g4309
*1288 u_account_balance/g4310
*1289 u_account_balance/g4311
*1290 u_account_balance/g4312
*1291 u_account_balance/g4313
*1292 u_account_balance/g4314
*1293 u_account_balance/g4315
*1294 u_account_balance/g4316
*1295 u_account_balance/g4317
*1296 u_account_balance/g4318
*1297 u_account_balance/g4319
*1298 u_account_balance/g4320
*1299 u_account_balance/g4321
*1300 u_account_balance/g4322
*1301 u_account_balance/g4323
*1302 u_account_balance/g4324
*1303 u_account_balance/g4325
*1304 u_account_balance/g4326
*1305 u_account_balance/g4327
*1306 u_account_balance/g4328
*1307 u_account_balance/g4329
*1308 u_account_balance/g4330
*1309 u_account_balance/g4331
*1310 u_account_balance/g4332
*1311 u_account_balance/g4333
*1312 u_account_balance/g4334
*1313 u_account_balance/g4335
*1314 u_account_balance/g4336
*1315 u_account_balance/g4337
*1316 u_account_balance/g4338
*1317 u_account_balance/g4341
*1318 u_account_balance/g4343
*1319 u_account_balance/g4344
*1320 u_account_balance/g4345
*1321 u_account_balance/g4346
*1322 u_account_balance/g4347
*1323 u_account_balance/g4349
*1324 u_account_balance/g4350
*1325 u_account_balance/g4351
*1326 u_account_balance/g4352
*1327 u_account_balance/g4353
*1328 u_account_balance/g4355
*1329 u_account_balance/g4356
*1330 u_account_balance/g4357
*1331 u_account_balance/g4358
*1332 u_account_balance/g4359
*1333 u_account_balance/g4360
*1334 u_account_balance/g4361
*1335 u_account_balance/g4362
*1336 u_account_balance/g4363
*1337 u_account_balance/g4365
*1338 u_account_balance/g4366
*1339 u_account_balance/g13470
*1340 u_account_balance/g3
*1341 u_account_balance/g13471
*1342 u_account_balance/g13472
*1343 u_account_balance/g13473
*1344 u_account_balance/g13474
*1345 u_account_balance/g13475
*1346 u_account_balance/g13476
*1347 u_account_balance/g13477
*1348 u_account_balance/g13478
*1349 u_account_balance/g13479
*1350 u_account_balance/g13480
*1351 u_account_balance/g13481
*1352 u_account_balance/g13482
*1353 u_account_balance/g13483
*1354 u_account_balance/g13484
*1355 u_account_balance/g13485
*1356 u_account_balance/g13486
*1357 u_barrier_ctrl/g152
*1358 u_barrier_ctrl/barrier_close_cmd_reg
*1359 u_barrier_ctrl/barrier_open_cmd_reg
*1360 u_barrier_ctrl/g214
*1361 u_barrier_ctrl/g215
*1362 u_barrier_ctrl/g216
*1363 u_barrier_ctrl/g217
*1364 u_barrier_ctrl/g218
*1365 u_barrier_ctrl/g219
*1366 u_barrier_ctrl/g220
*1367 u_barrier_ctrl/barrier_position_counter_reg\[2\]
*1368 u_barrier_ctrl/barrier_position_counter_reg\[0\]
*1369 u_barrier_ctrl/g324
*1370 u_barrier_ctrl/barrier_position_counter_reg\[1\]
*1371 u_barrier_ctrl/g326
*1372 u_barrier_ctrl/g327
*1373 u_barrier_ctrl/g328
*1374 u_barrier_ctrl/g329
*1375 u_barrier_ctrl/g330
*1376 u_barrier_ctrl/g331
*1377 u_barrier_ctrl/g332
*1378 u_barrier_ctrl/g333
*1379 u_barrier_ctrl/g334
*1380 u_barrier_ctrl/g335
*1381 u_barrier_ctrl/g336
*1382 u_barrier_ctrl/g337
*1383 u_vehicle_interface/id_valid_reg
*1384 u_vehicle_interface/id_to_check_reg\[0\]
*1385 u_vehicle_interface/id_to_check_reg\[1\]
*1386 u_vehicle_interface/id_to_check_reg\[2\]
*1387 u_vehicle_interface/id_to_check_reg\[3\]
*1388 u_vehicle_interface/g196
*1389 u_vehicle_interface/g197
*1390 u_vehicle_interface/g198
*1391 u_vehicle_interface/g199
*1392 u_vehicle_interface/g201
*1393 u_vehicle_interface/g202
*1394 g221
*1395 g224
*1396 g348
*1397 g349
*1398 g350
*1399 g351
*1400 g352
*1401 g353
*1402 g354
*1403 g355
*1404 g356
*1405 g357
*1406 g358
*1407 g359
*1408 g360
*1409 g361
*1410 g363
*1411 g364
*1412 state_reg\[0\]
*1413 state_reg\[2\]
*1414 state_reg\[1\]
*1415 g413
*1416 g414
*1417 g415
*1418 g416
*1419 g417
*1420 g418
*1421 g419
*1422 g420
*1423 g421
*1424 g422
*1425 g423
*1426 g424
*1427 g425
*1428 g426
*1429 g427
*1430 g428
*1431 g429
*1432 g430


*PORTS

*2 I *C 0 0
*3 I *C 21.285 0
*4 I *C 0 0
*5 I *C 0 20.415
*9 I *C 0 102.08
*10 I *C 0 81.665
*11 I *C 0 61.25
*12 I *C 0 40.83
*13 O *C 85.145 0
*14 O *C 106.43 0
*17 O *C 63.86 0
*18 O *C 42.57 0
*19 O *C 106.43 87.495
*20 O *C 106.43 72.91
*21 O *C 106.43 43.745
*22 O *C 106.43 29.165
*23 O *C 106.43 14.58
*24 O *C 106.43 0
*6 I *C 0 0
*7 I *C 0 0
*15 O *C 0 0
*8 I *C 0 0
*16 O *C 0 0


*D_NET *1 0.0028155

*CONN
*I *1175:A1 I *C 13.485 28.275 *L 0.00171 *D AOI22XL
*I *1384:SI I *C 12.905 31.465 *L 0.00273 *D SDFFHQX4
*I *1340:B I *C 19 25.905 *L 0.00164 *D MXI2XL
*I *1248:Q O *C 11.745 23.055 *L 0 *D SDFFQX1

*CAP
1 *1:2 4.73985e-05
2 *1:3 4.73985e-05
3 *1:4 0.000464388
4 *1:5 0.000257833
5 *1:6 0.000206556
6 *1:8 0.000108843
7 *1:9 0.000457142
8 *1:10 0.000348299
9 *1:11 0.00020507
10 *1:12 1.69713e-05
11 *1:13 0.00020507
12 *1:14 1.73249e-05
13 *1:15 0.000195918
14 *1:16 3.53569e-07
15 *1:17 0.000195918
16 *1:19 2.0507e-05
17 *1:20 2.0507e-05

*RES
1 *1:20 *1248:Q 1.4
2 *1:19 *1:20 0.124283
3 *1:17 *1:19 1.4
4 *1:16 *1340:B 1.4
5 *1:15 *1:17 1.1186
6 *1:14 *1:16 0.00214282
7 *1:13 *1:15 1.4
8 *1:12 *1:14 0.102855
9 *1:11 *1:13 1.24283
10 *1:10 *1:12 1.4
11 *1:9 *1:11 1.4
12 *1:9 *1:10 1.98862
13 *1:8 *1:9 0.621444
14 *1:6 *1:8 1.4
15 *1:5 *1384:SI 1.4
16 *1:4 *1:6 1.11855
17 *1:4 *1:5 1.36711
18 *1:3 *1:4 1.4
19 *1:2 *1:3 0.248577
20 *1:1 *1:2 1.4
21 *1175:A1 *1:1 1.4
*END

*D_NET *2 0.217054

*CONN
*I *795:CK I *C 64.815 91.785 *L 0.00173 *D SDFFQX1
*I *902:CK I *C 65.105 88.595 *L 0.00175 *D SDFFQXL
*I *918:CK I *C 65.395 97.005 *L 0.00175 *D SDFFQXL
*I *780:CK I *C 63.655 97.005 *L 0.00173 *D SDFFQX1
*I *903:CK I *C 61.335 93.815 *L 0.00173 *D SDFFQX1
*I *870:CK I *C 61.335 86.565 *L 0.00175 *D SDFFQXL
*I *913:CK I *C 53.505 93.815 *L 0.00175 *D SDFFQXL
*I *883:CK I *C 50.315 93.815 *L 0.00175 *D SDFFQXL
*I *843:CK I *C 63.945 83.375 *L 0.00173 *D SDFFQX1
*I *885:CK I *C 54.665 83.375 *L 0.00175 *D SDFFQXL
*I *858:CK I *C 63.945 78.155 *L 0.00175 *D SDFFQXL
*I *898:CK I *C 48.865 88.595 *L 0.00175 *D SDFFQXL
*I *1230:CK I *C 54.665 78.155 *L 0.00173 *D SDFFQX1
*I *900:CK I *C 62.495 78.155 *L 0.00175 *D SDFFQXL
*I *855:CK I *C 54.375 81.345 *L 0.00175 *D SDFFQXL
*I *823:CK I *C 48.865 97.005 *L 0.00175 *D SDFFQXL
*I *825:CK I *C 46.255 97.005 *L 0.00175 *D SDFFQXL
*I *763:CK I *C 41.905 91.785 *L 0.00173 *D SDFFQX1
*I *748:CK I *C 41.035 88.595 *L 0.00173 *D SDFFQX1
*I *915:CK I *C 55.825 76.125 *L 0.00175 *D SDFFQXL
*I *750:CK I *C 33.785 91.785 *L 0.00173 *D SDFFQX1
*I *810:CK I *C 31.755 93.815 *L 0.00175 *D SDFFQXL
*I *821:CK I *C 30.305 93.815 *L 0.00175 *D SDFFQXL
*I *765:CK I *C 32.045 97.005 *L 0.00173 *D SDFFQX1
*I *820:CK I *C 23.925 97.005 *L 0.00175 *D SDFFQXL
*I *806:CK I *C 22.475 93.815 *L 0.00175 *D SDFFQXL
*I *760:CK I *C 15.805 97.005 *L 0.00173 *D SDFFQX1
*I *775:CK I *C 7.975 97.005 *L 0.00173 *D SDFFQX1
*I *805:CK I *C 25.665 91.785 *L 0.00173 *D SDFFQX1
*I *776:CK I *C 5.075 93.815 *L 0.00173 *D SDFFQX1
*I *836:CK I *C 27.985 86.565 *L 0.00175 *D SDFFQXL
*I *881:CK I *C 11.455 91.785 *L 0.00175 *D SDFFQXL
*I *746:CK I *C 4.785 88.595 *L 0.00173 *D SDFFQX1
*I *790:CK I *C 4.785 86.565 *L 0.00173 *D SDFFQX1
*I *791:CK I *C 4.785 83.375 *L 0.00173 *D SDFFQX1
*I *911:CK I *C 5.075 81.345 *L 0.00175 *D SDFFQXL
*I *835:CK I *C 14.355 81.345 *L 0.00173 *D SDFFQX1
*I *735:CK I *C 32.045 83.375 *L 0.00173 *D SDFFQX1
*I *1226:CK I *C 30.305 78.155 *L 0.00173 *D SDFFQX1
*I *896:CK I *C 4.785 78.155 *L 0.00173 *D SDFFQX1
*I *731:CK I *C 23.635 83.375 *L 0.00173 *D SDFFQX1
*I *866:CK I *C 15.805 83.375 *L 0.00175 *D SDFFQXL
*I *761:CK I *C 35.815 86.565 *L 0.00173 *D SDFFQX1
*I *840:CK I *C 39.875 83.375 *L 0.00175 *D SDFFQXL
*I *1254:CK I *C 29.145 76.125 *L 0.00173 *D SDFFQX1
*I *1228:CK I *C 42.195 76.125 *L 0.00173 *D SDFFQX1
*I *733:CK I *C 42.485 81.345 *L 0.00173 *D SDFFQX1
*I *1244:CK I *C 41.615 78.155 *L 0.00173 *D SDFFQX1
*I *1258:CK I *C 38.135 72.935 *L 0.00173 *D SDFFQX1
*I *1242:CK I *C 44.805 65.685 *L 0.00173 *D SDFFQX1
*I *868:CK I *C 45.385 72.935 *L 0.00175 *D SDFFQXL
*I *853:CK I *C 46.255 65.685 *L 0.00175 *D SDFFQXL
*I *778:CK I *C 50.895 67.715 *L 0.00173 *D SDFFQX1
*I *808:CK I *C 54.085 65.685 *L 0.00175 *D SDFFQXL
*I *1256:CK I *C 44.805 60.465 *L 0.00173 *D SDFFQX1
*I *838:CK I *C 42.775 62.495 *L 0.00173 *D SDFFQX1
*I *793:CK I *C 50.605 62.495 *L 0.00173 *D SDFFQX1
*I *745:CK I *C 36.975 65.685 *L 0.00173 *D SDFFQX1
*I *1253:CK I *C 36.975 60.465 *L 0.00173 *D SDFFQX1
*I *1238:CK I *C 29.145 60.465 *L 0.00173 *D SDFFQX1
*I *897:CK I *C 58.435 62.495 *L 0.00175 *D SDFFQXL
*I *1239:CK I *C 31.465 67.715 *L 0.00173 *D SDFFQX1
*I *912:CK I *C 60.755 60.465 *L 0.00175 *D SDFFQXL
*I *1251:CK I *C 47.705 57.275 *L 0.00173 *D SDFFQX1
*I *743:CK I *C 55.535 57.275 *L 0.00173 *D SDFFQX1
*I *730:CK I *C 23.055 67.715 *L 0.00173 *D SDFFQX1
*I *1252:CK I *C 27.695 52.055 *L 0.00173 *D SDFFQX1
*I *792:CK I *C 61.915 55.245 *L 0.00173 *D SDFFQX1
*I *1225:CK I *C 22.765 65.685 *L 0.00173 *D SDFFQX1
*I *773:CK I *C 50.315 55.245 *L 0.00173 *D SDFFQX1
*I *893:CK I *C 57.855 52.055 *L 0.00175 *D SDFFQXL
*I *788:CK I *C 47.705 52.055 *L 0.00173 *D SDFFQX1
*I *834:CK I *C 18.995 62.495 *L 0.00173 *D SDFFQX1
*I *863:CK I *C 41.035 50.025 *L 0.00175 *D SDFFQXL
*I *908:CK I *C 60.175 50.025 *L 0.00175 *D SDFFQXL
*I *779:CK I *C 68.005 50.025 *L 0.00173 *D SDFFQX1
*I *759:CK I *C 14.935 60.465 *L 0.00173 *D SDFFQX1
*I *916:CK I *C 68.005 57.275 *L 0.00175 *D SDFFQXL
*I *758:CK I *C 47.995 44.805 *L 0.00173 *D SDFFQX1
*I *849:CK I *C 16.675 55.245 *L 0.00175 *D SDFFQXL
*I *865:CK I *C 12.615 65.685 *L 0.00173 *D SDFFQX1
*I *1237:CK I *C 39.295 44.805 *L 0.00173 *D SDFFQX1
*I *880:CK I *C 12.615 70.905 *L 0.00175 *D SDFFQXL
*I *914:CK I *C 68.005 44.805 *L 0.00175 *D SDFFQXL
*I *848:CK I *C 59.015 46.835 *L 0.00175 *D SDFFQXL
*I *864:CK I *C 14.065 52.055 *L 0.00175 *D SDFFQXL
*I *794:CK I *C 67.425 41.615 *L 0.00173 *D SDFFQX1
*I *824:CK I *C 69.745 52.055 *L 0.00175 *D SDFFQXL
*I *803:CK I *C 65.975 41.615 *L 0.00173 *D SDFFQX1
*I *1250:CK I *C 43.355 34.365 *L 0.00173 *D SDFFQX1
*I *833:CK I *C 47.415 39.585 *L 0.00173 *D SDFFQX1
*I *1231:CK I *C 71.775 60.465 *L 0.00173 *D SDFFQX1
*I *728:CK I *C 57.565 44.805 *L 0.00173 *D SDFFQX1
*I *804:CK I *C 12.615 50.025 *L 0.00173 *D SDFFQX1
*I *747:CK I *C 79.605 60.465 *L 0.00173 *D SDFFQX1
*I *879:CK I *C 12.615 46.835 *L 0.00175 *D SDFFQXL
*I *850:CK I *C 8.845 67.715 *L 0.00175 *D SDFFQXL
*I *807:CK I *C 77.865 55.245 *L 0.00173 *D SDFFQX1
*I *901:CK I *C 66.265 62.495 *L 0.00175 *D SDFFQXL
*I *1233:CK I *C 41.325 29.145 *L 0.00173 *D SDFFQX1
*I *878:CK I *C 48.865 39.585 *L 0.00175 *D SDFFQXL
*I *819:CK I *C 14.645 44.805 *L 0.00175 *D SDFFQXL
*I *899:CK I *C 64.815 36.395 *L 0.00175 *D SDFFQXL
*I *736:CK I *C 76.415 55.245 *L 0.00173 *D SDFFQX1
*I *894:CK I *C 4.785 50.025 *L 0.00173 *D SDFFQX1
*I *1240:CK I *C 19.285 72.935 *L 0.00173 *D SDFFQX1
*I *910:CK I *C 4.785 70.905 *L 0.00175 *D SDFFQXL
*I *1222:CK I *C 58.145 34.365 *L 0.00173 *D SDFFQX1
*I *1221:CK I *C 67.135 34.365 *L 0.00173 *D SDFFQX1
*I *909:CK I *C 4.785 52.055 *L 0.00175 *D SDFFQXL
*I *1386:CK I *C 4.785 44.805 *L 0.00173 *D SDFFQX1
*I *818:CK I *C 56.985 36.395 *L 0.00173 *D SDFFQX1
*I *826:CK I *C 76.415 50.025 *L 0.00175 *D SDFFQXL
*I *1236:CK I *C 47.125 25.955 *L 0.00173 *D SDFFQX1
*I *1224:CK I *C 23.345 44.805 *L 0.00173 *D SDFFQX1
*I *851:CK I *C 19.285 76.125 *L 0.00175 *D SDFFQXL
*I *781:CK I *C 61.915 65.685 *L 0.00173 *D SDFFQX1
*I *862:CK I *C 57.275 31.175 *L 0.00173 *D SDFFQX1
*I *817:CK I *C 55.825 31.175 *L 0.00173 *D SDFFQX1
*I *846:CK I *C 68.875 31.175 *L 0.00175 *D SDFFQXL
*I *751:CK I *C 87.435 60.465 *L 0.00173 *D SDFFQX1
*I *847:CK I *C 51.765 23.925 *L 0.00175 *D SDFFQXL
*I *895:CK I *C 4.785 65.685 *L 0.00173 *D SDFFQX1
*I *732:CK I *C 88.305 62.495 *L 0.00173 *D SDFFQX1
*I *789:CK I *C 4.785 60.465 *L 0.00173 *D SDFFQX1
*I *729:CK I *C 24.215 46.835 *L 0.00173 *D SDFFQX1
*I *744:CK I *C 4.785 62.495 *L 0.00173 *D SDFFQX1
*I *832:CK I *C 64.525 29.145 *L 0.00173 *D SDFFQX1
*I *837:CK I *C 87.435 65.685 *L 0.00175 *D SDFFQXL
*I *777:CK I *C 81.925 65.685 *L 0.00173 *D SDFFQX1
*I *809:CK I *C 79.315 44.805 *L 0.00175 *D SDFFQXL
*I *774:CK I *C 7.105 57.275 *L 0.00173 *D SDFFQX1
*I *856:CK I *C 80.475 46.835 *L 0.00175 *D SDFFQXL
*I *831:CK I *C 69.455 25.955 *L 0.00173 *D SDFFQX1
*I *726:CK I *C 56.695 20.735 *L 0.00173 *D SDFFQX1
*I *741:CK I *C 56.695 18.705 *L 0.00173 *D SDFFQX1
*I *802:CK I *C 57.565 15.515 *L 0.00173 *D SDFFQX1
*I *816:CK I *C 71.485 23.925 *L 0.00173 *D SDFFQX1
*I *762:CK I *C 92.075 70.905 *L 0.00173 *D SDFFQX1
*I *852:CK I *C 76.125 67.715 *L 0.00175 *D SDFFQXL
*I *796:CK I *C 74.675 67.715 *L 0.00173 *D SDFFQX1
*I *801:CK I *C 72.935 20.735 *L 0.00173 *D SDFFQX1
*I *882:CK I *C 87.435 72.935 *L 0.00175 *D SDFFQXL
*I *867:CK I *C 95.265 65.685 *L 0.00175 *D SDFFQXL
*I *861:CK I *C 72.935 18.705 *L 0.00173 *D SDFFQX1
*I *822:CK I *C 85.985 72.935 *L 0.00175 *D SDFFQXL
*I *1227:CK I *C 75.545 70.905 *L 0.00173 *D SDFFQX1
*I *727:CK I *C 52.055 13.485 *L 0.00173 *D SDFFQX1
*I *892:CK I *C 54.085 8.265 *L 0.00173 *D SDFFQX1
*I *876:CK I *C 74.965 13.485 *L 0.00175 *D SDFFQXL
*I *739:CK I *C 48.575 15.515 *L 0.00173 *D SDFFQX1
*I *842:CK I *C 84.535 76.125 *L 0.00175 *D SDFFQXL
*I *1241:CK I *C 101.645 62.495 *L 0.00173 *D SDFFQX1
*I *742:CK I *C 47.415 18.705 *L 0.00173 *D SDFFQX1
*I *772:CK I *C 56.115 5.075 *L 0.00173 *D SDFFQX1
*I *754:CK I *C 47.995 5.075 *L 0.00173 *D SDFFQX1
*I *1412:CK I *C 80.765 18.705 *L 0.00173 *D SDFFQX1
*I *1232:CK I *C 81.925 76.125 *L 0.00173 *D SDFFQX1
*I *1255:CK I *C 95.265 60.465 *L 0.00173 *D SDFFQX1
*I *859:CK I *C 40.745 18.705 *L 0.00173 *D SDFFQX1
*I *752:CK I *C 95.265 81.345 *L 0.00173 *D SDFFQX1
*I *1246:CK I *C 95.265 76.125 *L 0.00173 *D SDFFQX1
*I *1260:CK I *C 101.645 72.935 *L 0.00173 *D SDFFQX1
*I *756:CK I *C 71.775 10.295 *L 0.00173 *D SDFFQX1
*I *857:CK I *C 88.305 81.345 *L 0.00175 *D SDFFQXL
*I *872:CK I *C 95.265 78.155 *L 0.00175 *D SDFFQXL
*I *886:CK I *C 97.585 57.275 *L 0.00175 *D SDFFQXL
*I *814:CK I *C 32.915 18.705 *L 0.00173 *D SDFFQX1
*I *829:CK I *C 34.075 25.955 *L 0.00173 *D SDFFQX1
*I *787:CK I *C 68.875 8.265 *L 0.00173 *D SDFFQX1
*I *907:CK I *C 58.725 5.075 *L 0.00175 *D SDFFQXL
*I *753:CK I *C 93.525 86.565 *L 0.00173 *D SDFFQX1
*I *1259:CK I *C 92.365 55.245 *L 0.00173 *D SDFFQX1
*I *844:CK I *C 34.945 23.925 *L 0.00173 *D SDFFQX1
*I *877:CK I *C 45.675 10.295 *L 0.00175 *D SDFFQXL
*I *757:CK I *C 45.675 8.265 *L 0.00173 *D SDFFQX1
*I *786:CK I *C 77.285 8.265 *L 0.00173 *D SDFFQX1
*I *767:CK I *C 94.975 91.785 *L 0.00173 *D SDFFQX1
*I *827:CK I *C 92.655 91.785 *L 0.00175 *D SDFFQXL
*I *873:CK I *C 88.595 83.375 *L 0.00173 *D SDFFQX1
*I *738:CK I *C 87.145 83.375 *L 0.00173 *D SDFFQX1
*I *871:CK I *C 95.265 52.055 *L 0.00175 *D SDFFQXL
*I *797:CK I *C 79.315 83.375 *L 0.00173 *D SDFFQX1
*I *766:CK I *C 95.265 50.025 *L 0.00173 *D SDFFQX1
*I *1370:CK I *C 79.025 8.265 *L 0.00173 *D SDFFQX1
*I *1219:CK I *C 31.755 34.365 *L 0.00173 *D SDFFQX1
*I *874:CK I *C 37.555 10.295 *L 0.00173 *D SDFFQX1
*I *891:CK I *C 63.655 10.295 *L 0.00173 *D SDFFQX1
*I *906:CK I *C 67.135 5.075 *L 0.00175 *D SDFFQXL
*I *917:CK I *C 75.835 86.565 *L 0.00175 *D SDFFQXL
*I *1247:CK I *C 31.465 39.585 *L 0.00173 *D SDFFQX1
*I *904:CK I *C 37.555 8.265 *L 0.00175 *D SDFFQXL
*I *784:CK I *C 36.105 10.295 *L 0.00173 *D SDFFQX1
*I *1223:CK I *C 31.465 41.615 *L 0.00173 *D SDFFQX1
*I *888:CK I *C 98.745 93.815 *L 0.00175 *D SDFFQXL
*I *768:CK I *C 92.075 97.005 *L 0.00173 *D SDFFQX1
*I *771:CK I *C 81.635 5.075 *L 0.00173 *D SDFFQX1
*I *887:CK I *C 101.645 88.595 *L 0.00175 *D SDFFQXL
*I *811:CK I *C 88.305 46.835 *L 0.00173 *D SDFFQX1
*I *1368:CK I *C 88.595 15.515 *L 0.00173 *D SDFFQX1
*I *1367:CK I *C 90.045 5.075 *L 0.00173 *D SDFFQX1
*I *828:CK I *C 90.045 97.005 *L 0.00173 *D SDFFQX1
*I *737:CK I *C 74.095 81.345 *L 0.00173 *D SDFFQX1
*I *841:CK I *C 87.435 50.025 *L 0.00175 *D SDFFQXL
*I *1245:CK I *C 95.265 44.805 *L 0.00173 *D SDFFQX1
*I *749:CK I *C 87.145 44.805 *L 0.00173 *D SDFFQX1
*I *1359:CK I *C 100.775 5.075 *L 0.00173 *D SDFFQX1
*I *764:CK I *C 94.975 41.615 *L 0.00173 *D SDFFQX1
*I *782:CK I *C 79.315 88.595 *L 0.00173 *D SDFFQX1
*I *798:CK I *C 77.865 93.815 *L 0.00173 *D SDFFQX1
*I *884:CK I *C 96.135 39.585 *L 0.00175 *D SDFFQXL
*I *769:CK I *C 32.915 5.075 *L 0.00173 *D SDFFQX1
*I *889:CK I *C 29.435 8.265 *L 0.00173 *D SDFFQX1
*I *812:CK I *C 81.055 88.595 *L 0.00173 *D SDFFQX1
*I *869:CK I *C 95.265 34.365 *L 0.00175 *D SDFFQXL
*I *734:CK I *C 84.825 41.615 *L 0.00173 *D SDFFQX1
*I *799:CK I *C 24.505 5.075 *L 0.00173 *D SDFFQX1
*I *1358:CK I *C 101.645 8.265 *L 0.00173 *D SDFFQX1
*I *813:CK I *C 81.345 93.815 *L 0.00173 *D SDFFQX1
*I *1257:CK I *C 95.265 36.395 *L 0.00173 *D SDFFQX1
*I *1414:CK I *C 95.265 31.175 *L 0.00173 *D SDFFQX1
*I *1243:CK I *C 93.815 31.175 *L 0.00173 *D SDFFQX1
*I *783:CK I *C 81.345 97.005 *L 0.00173 *D SDFFQX1
*I *839:CK I *C 83.375 36.395 *L 0.00175 *D SDFFQXL
*I *1413:CK I *C 90.625 29.145 *L 0.00173 *D SDFFQX1
*I *1249:CK I *C 81.635 34.365 *L 0.00173 *D SDFFQX1
*I *854:CK I *C 81.345 36.395 *L 0.00175 *D SDFFQXL
*I *925:CK I *C 89.175 29.145 *L 0.00173 *D SDFFQX1
*I *755:CK I *C 16.385 5.075 *L 0.00173 *D SDFFQX1
*I *800:CK I *C 21.315 8.265 *L 0.00173 *D SDFFQX1
*I *725:CK I *C 21.895 10.295 *L 0.00173 *D SDFFQX1
*I *1235:CK I *C 83.085 31.175 *L 0.00173 *D SDFFQX1
*I *1229:CK I *C 81.345 39.585 *L 0.00173 *D SDFFQX1
*I *860:CK I *C 12.905 13.485 *L 0.00173 *D SDFFQX1
*I *1383:CK I *C 85.695 23.925 *L 0.00173 *D SDFFQX1
*I *875:CK I *C 13.195 8.265 *L 0.00173 *D SDFFQX1
*I *770:CK I *C 7.685 5.075 *L 0.00173 *D SDFFQX1
*I *890:CK I *C 4.785 8.265 *L 0.00173 *D SDFFQX1
*I *905:CK I *C 4.785 13.485 *L 0.00175 *D SDFFQXL
*P *2 I *C 0 0 *L 0
*I *785:CK I *C 7.105 15.515 *L 0.00173 *D SDFFQX1
*I *740:CK I *C 10.875 18.705 *L 0.00173 *D SDFFQX1
*I *1248:CK I *C 11.165 23.925 *L 0.00173 *D SDFFQX1
*I *830:CK I *C 4.785 25.955 *L 0.00173 *D SDFFQX1
*I *1234:CK I *C 18.125 20.735 *L 0.00173 *D SDFFQX1
*I *815:CK I *C 18.705 18.705 *L 0.00173 *D SDFFQX1
*I *1220:CK I *C 25.955 20.735 *L 0.00173 *D SDFFQX1
*I *845:CK I *C 4.785 29.145 *L 0.00175 *D SDFFQXL
*I *1384:CK I *C 4.495 31.465 *L 0.00169 *D SDFFHQX4
*I *1387:CK I *C 11.165 34.365 *L 0.00173 *D SDFFQX1
*I *724:CK I *C 26.825 15.515 *L 0.00173 *D SDFFQX1
*I *1385:CK I *C 11.165 39.585 *L 0.00173 *D SDFFQX1

*CAP
1 *2:2 2.43264e-05
2 *2:3 2.43264e-05
3 *2:4 0.000593642
4 *2:5 0.000388938
5 *2:6 0.000225175
6 *2:7 2.04704e-05
7 *2:8 2.43264e-05
8 *2:10 0.000121632
9 *2:11 2.43264e-05
10 *2:12 0.000121632
11 *2:14 2.04704e-05
12 *2:16 0.000266115
13 *2:18 0.000245645
14 *2:19 0.000194611
15 *2:20 0.000194611
16 *2:21 0.00051176
17 *2:22 2.04704e-05
18 *2:23 0.000695994
19 *2:25 0.000656814
20 *2:27 0.000225175
21 *2:28 0.000931258
22 *2:29 0.000218938
23 *2:30 2.04704e-05
24 *2:32 0.000375968
25 *2:33 0.000218938
26 *2:34 0.000559508
27 *2:37 0.000126905
28 *2:38 2.04704e-05
29 *2:39 0.000559508
30 *2:41 0.000246812
31 *2:42 2.53809e-05
32 *2:43 0.000390731
33 *2:44 0.000143293
34 *2:45 0.000246812
35 *2:46 0.000370219
36 *2:48 0.00037026
37 *2:50 0.00037026
38 *2:51 2.53809e-05
39 *2:52 0.000370219
40 *2:54 0.000136985
41 *2:55 2.43264e-05
42 *2:56 0.000395362
43 *2:57 0.000253809
44 *2:59 0.000609142
45 *2:60 0.000136985
46 *2:61 2.43264e-05
47 *2:63 0.000168395
48 *2:64 2.05677e-05
49 *2:65 0.000228428
50 *2:66 0.000685284
51 *2:69 0.000109588
52 *2:70 2.05677e-05
53 *2:71 2.05677e-05
54 *2:72 0.000226245
55 *2:73 7.61427e-05
56 *2:76 0.000109588
57 *2:78 2.05677e-05
58 *2:79 0.00026738
59 *2:83 4.11354e-05
60 *2:87 0.000710665
61 *2:88 0.000710665
62 *2:89 0.000143974
63 *2:90 0.000102838
64 *2:91 4.11354e-05
65 *2:92 0.000177666
66 *2:94 0.000304571
67 *2:95 0.000226245
68 *2:96 0.000126905
69 *2:97 0.00026738
70 *2:100 4.11354e-05
71 *2:101 2.53809e-05
72 *2:103 0.000649608
73 *2:104 2.53809e-05
74 *2:105 0.000649608
75 *2:107 3.94288e-05
76 *2:109 3.94288e-05
77 *2:111 0.00010312
78 *2:112 0.000577475
79 *2:113 0.000216859
80 *2:114 0.0010312
81 *2:115 0.000335145
82 *2:117 0.000556851
83 *2:119 0.000118287
84 *2:121 0.000216859
85 *2:122 0.000185617
86 *2:124 0.000216859
87 *2:125 0.000226865
88 *2:126 0.000247489
89 *2:127 4.12482e-05
90 *2:128 0.00035486
91 *2:129 8.24964e-05
92 *2:130 0.000206241
93 *2:131 1.97144e-05
94 *2:132 0.00035486
95 *2:133 0.000138001
96 *2:134 0.00035486
97 *2:135 4.12482e-05
98 *2:136 1.97144e-05
99 *2:137 0.00023716
100 *2:138 0.000138001
101 *2:139 0.000709719
102 *2:142 0.000465588
103 *2:143 0.000164993
104 *2:144 6.18723e-05
105 *2:145 0.00049286
106 *2:147 0.000228428
107 *2:148 2.05677e-05
108 *2:149 0.000164993
109 *2:150 6.18723e-05
110 *2:151 6.18723e-05
111 *2:152 0.000138001
112 *2:153 0.000246812
113 *2:154 2.05677e-05
114 *2:156 0.000138001
115 *2:157 6.18723e-05
116 *2:158 6.18723e-05
117 *2:159 0.000246812
118 *2:163 0.000138001
119 *2:165 0.000618723
120 *2:166 4.12482e-05
121 *2:167 0.000152285
122 *2:170 0.000783716
123 *2:171 0.000218815
124 *2:173 0.000431475
125 *2:174 2.53809e-05
126 *2:175 0.000185617
127 *2:177 0.000218815
128 *2:179 0.000304571
129 *2:181 0.000372528
130 *2:182 0.000138001
131 *2:184 8.83706e-05
132 *2:185 0.00026738
133 *2:187 0.000523652
134 *2:188 0.000138001
135 *2:189 8.83706e-05
136 *2:190 0.000226245
137 *2:191 4.11354e-05
138 *2:193 0.000151124
139 *2:194 0.000556851
140 *2:196 2.53809e-05
141 *2:197 0.000380714
142 *2:198 0.000113082
143 *2:199 0.000474354
144 *2:200 8.24964e-05
145 *2:202 2.53809e-05
146 *2:203 0.000380714
147 *2:204 0.000113082
148 *2:208 8.22708e-05
149 *2:209 2.51873e-05
150 *2:213 4.11354e-05
151 *2:214 4.11354e-05
152 *2:215 2.51873e-05
153 *2:217 0.000203047
154 *2:219 0.000203047
155 *2:220 6.17031e-05
156 *2:221 0.000290258
157 *2:222 2.53809e-05
158 *2:223 0.000404866
159 *2:224 2.53809e-05
160 *2:225 5.6541e-05
161 *2:226 0.000478559
162 *2:228 5.6541e-05
163 *2:230 0.000327435
164 *2:233 0.000395787
165 *2:234 2.51873e-05
166 *2:236 0.000395787
167 *2:237 0.000254434
168 *2:238 2.51873e-05
169 *2:239 0.000254434
170 *2:240 2.51873e-05
171 *2:241 0.000604496
172 *2:243 5.03747e-05
173 *2:244 0.000579309
174 *2:245 5.6541e-05
175 *2:246 2.82705e-05
176 *2:247 2.51873e-05
177 *2:248 5.6541e-05
178 *2:249 0.000141352
179 *2:252 0.00056541
180 *2:253 0.000327435
181 *2:255 0.000452328
182 *2:256 2.51873e-05
183 *2:257 0.000327435
184 *2:258 0.000176311
185 *2:259 2.51873e-05
186 *2:260 2.82705e-05
187 *2:261 0.000151124
188 *2:262 2.51873e-05
189 *2:264 0.000226164
190 *2:266 0.000333569
191 *2:267 0.000100749
192 *2:268 0.000904656
193 *2:269 0.000497078
194 *2:270 2.82705e-05
195 *2:271 0.000151124
196 *2:272 2.51873e-05
197 *2:273 0.000706762
198 *2:274 0.00019178
199 *2:276 0.000277061
200 *2:277 0.000113082
201 *2:278 5.03747e-05
202 *2:279 2.51873e-05
203 *2:280 0.000453372
204 *2:281 0.000312733
205 *2:283 0.000277061
206 *2:284 0.000113082
207 *2:287 0.000352623
208 *2:288 0.000151124
209 *2:289 0.000312733
210 *2:291 0.000302248
211 *2:292 5.03747e-05
212 *2:293 0.000141352
213 *2:294 0.000763303
214 *2:295 0.000219177
215 *2:296 0.000302248
216 *2:297 0.000395787
217 *2:298 0.000141352
218 *2:299 0.000141352
219 *2:300 0.000735033
220 *2:301 0.000438353
221 *2:302 0.000169623
222 *2:303 0.000395787
223 *2:307 0.000113082
224 *2:308 0.000219177
225 *2:309 4.81128e-05
226 *2:310 0.000922882
227 *2:311 0.000125937
228 *2:315 0.000730433
229 *2:316 0.000120282
230 *2:317 4.81128e-05
231 *2:318 0.000753259
232 *2:319 2.51873e-05
233 *2:320 0.000125937
234 *2:321 0.000730433
235 *2:322 0.000553297
236 *2:324 2.40564e-05
237 *2:325 0.000151124
238 *2:326 0.000754977
239 *2:328 2.86085e-05
240 *2:330 0.000433015
241 *2:331 0.000433015
242 *2:333 0.000125937
243 *2:334 0.00077707
244 *2:335 2.86085e-05
245 *2:336 0.000109588
246 *2:338 0.000408959
247 *2:339 0.000367516
248 *2:341 2.20927e-05
249 *2:343 0.000109588
250 *2:344 0.000219177
251 *2:345 0.000254434
252 *2:346 0.000113082
253 *2:348 0.000165392
254 *2:351 0.000465751
255 *2:352 5.03747e-05
256 *2:353 0.000327435
257 *2:354 0.000425293
258 *2:356 0.000246574
259 *2:357 2.40319e-05
260 *2:358 5.03747e-05
261 *2:359 0.000503748
262 *2:361 0.000259902
263 *2:362 0.000192084
264 *2:363 2.40319e-05
265 *2:365 0.000114434
266 *2:366 0.000176312
267 *2:367 0.000287204
268 *2:368 0.000264106
269 *2:370 0.000114434
270 *2:371 0.00057217
271 *2:372 0.000441853
272 *2:373 2.76379e-05
273 *2:374 7.20223e-05
274 *2:376 2.86085e-05
275 *2:377 0.000543561
276 *2:379 0.000198834
277 *2:380 2.76379e-05
278 *2:381 0.000801498
279 *2:383 0.000428186
280 *2:386 0.000165392
281 *2:387 4.41853e-05
282 *2:389 0.000746223
283 *2:390 8.29136e-05
284 *2:391 0.000453374
285 *2:393 0.000590685
286 *2:394 0.000259902
287 *2:396 2.76379e-05
288 *2:397 7.20223e-05
289 *2:398 0.000216067
290 *2:399 5.7217e-05
291 *2:400 2.51874e-05
292 *2:401 0.000154649
293 *2:402 0.00070854
294 *2:403 0.000259902
295 *2:404 0.000360112
296 *2:405 0.000216067
297 *2:406 0.000216067
298 *2:407 0.000743821
299 *2:408 0.000114434
300 *2:409 0.000154649
301 *2:410 2.20927e-05
302 *2:411 0.000283247
303 *2:412 0.000287204
304 *2:413 0.000624194
305 *2:414 0.000601043
306 *2:416 5.52757e-05
307 *2:417 0.000428186
308 *2:418 0.000686604
309 *2:419 0.000114434
310 *2:421 2.20927e-05
311 *2:422 0.000236992
312 *2:423 0.000287204
313 *2:424 2.76379e-05
314 *2:425 0.000264082
315 *2:426 0.000745675
316 *2:427 0.000165827
317 *2:428 0.000221103
318 *2:429 0.000478561
319 *2:430 2.51874e-05
320 *2:434 0.000331789
321 *2:435 0.000425293
322 *2:436 2.76379e-05
323 *2:437 8.29136e-05
324 *2:438 0.000288677
325 *2:440 0.000165827
326 *2:441 2.40074e-05
327 *2:442 0.000165827
328 *2:443 0.000286085
329 *2:444 5.03749e-05
330 *2:445 2.51874e-05
331 *2:448 2.34394e-05
332 *2:449 9.47969e-05
333 *2:450 0.000448921
334 *2:453 0.000221103
335 *2:454 0.000465751
336 *2:455 2.40074e-05
337 *2:456 2.40074e-05
338 *2:457 0.000144045
339 *2:458 0.000286085
340 *2:459 0.000114434
341 *2:461 2.34394e-05
342 *2:462 0.000164075
343 *2:463 2.36274e-05
344 *2:467 0.000165827
345 *2:468 0.000904104
346 *2:469 0.000109588
347 *2:470 2.40074e-05
348 *2:472 0.000144045
349 *2:473 0.000503749
350 *2:474 0.000114434
351 *2:476 2.34394e-05
352 *2:477 0.000398469
353 *2:478 0.00041976
354 *2:481 2.76379e-05
355 *2:482 0.000719707
356 *2:483 2.40564e-05
357 *2:484 9.62255e-05
358 *2:486 2.76379e-05
359 *2:487 0.000931935
360 *2:488 2.51874e-05
361 *2:489 0.000568782
362 *2:490 2.36992e-05
363 *2:491 0.000304712
364 *2:492 0.000132556
365 *2:493 0.000287204
366 *2:495 0.000456141
367 *2:496 0.000171765
368 *2:497 0.000457071
369 *2:498 2.40564e-05
370 *2:499 9.62255e-05
371 *2:500 2.76379e-05
372 *2:502 0.000453374
373 *2:503 2.51874e-05
374 *2:505 0.000568782
375 *2:506 2.36992e-05
376 *2:507 2.36992e-05
377 *2:508 4.68787e-05
378 *2:509 0.000141764
379 *2:510 4.72548e-05
380 *2:511 0.000480149
381 *2:512 2.33514e-05
382 *2:513 0.000457071
383 *2:515 5.47942e-05
384 *2:517 0.000343302
385 *2:518 2.51874e-05
386 *2:519 0.000143042
387 *2:520 0.000164075
388 *2:522 2.36992e-05
389 *2:523 0.000142195
390 *2:524 0.000141764
391 *2:525 0.000283529
392 *2:526 8.29136e-05
393 *2:527 2.40074e-05
394 *2:528 2.33514e-05
395 *2:529 0.000109588
396 *2:530 0.000246574
397 *2:532 0.000343302
398 *2:533 0.000200259
399 *2:534 0.000143042
400 *2:535 0.000585984
401 *2:538 0.00030809
402 *2:539 0.000353482
403 *2:540 0.000309297
404 *2:541 0.000283529
405 *2:542 0.000718585
406 *2:543 0.000138189
407 *2:545 0.000596685
408 *2:546 2.73971e-05
409 *2:547 0.000109588
410 *2:548 4.81128e-05
411 *2:549 0.00019178
412 *2:550 0.000321391
413 *2:551 0.000200259
414 *2:552 2.51874e-05
415 *2:553 9.47969e-05
416 *2:554 0.000421908
417 *2:556 0.000165895
418 *2:557 0.000117197
419 *2:558 0.000375575
420 *2:559 0.000309297
421 *2:561 4.72548e-05
422 *2:562 2.40074e-05
423 *2:563 0.000746223
424 *2:564 0.000248741
425 *2:565 0.000596685
426 *2:567 0.000432648
427 *2:568 2.73971e-05
428 *2:569 4.81128e-05
429 *2:570 0.000360846
430 *2:571 0.000321391
431 *2:573 2.51874e-05
432 *2:574 9.47969e-05
433 *2:575 9.47969e-05
434 *2:576 0.000117197
435 *2:577 0.000117197
436 *2:578 2.20927e-05
437 *2:579 0.000259902
438 *2:580 2.36274e-05
439 *2:581 0.000243019
440 *2:582 2.40074e-05
441 *2:583 0.000144045
442 *2:584 0.000110551
443 *2:585 0.000110551
444 *2:586 0.000120037
445 *2:587 0.000116757
446 *2:589 0.000744745
447 *2:592 0.000360846
448 *2:593 2.56424e-05
449 *2:596 0.000164075
450 *2:597 9.47969e-05
451 *2:598 0.000117197
452 *2:601 0.000259902
453 *2:602 2.36274e-05
454 *2:603 0.000243019
455 *2:605 0.000144045
456 *2:606 0.000432134
457 *2:607 0.000384119
458 *2:608 0.000120037
459 *2:609 0.000116757
460 *2:610 2.76379e-05
461 *2:611 0.000312097
462 *2:613 0.000219177
463 *2:614 0.00043592
464 *2:615 0.000164075
465 *2:618 0.000545082
466 *2:620 2.20927e-05
467 *2:622 0.000118137
468 *2:624 2.40074e-05
469 *2:625 0.000408127
470 *2:626 0.000528164
471 *2:628 9.17977e-05
472 *2:629 2.76379e-05
473 *2:630 0.000211552
474 *2:631 0.000219177
475 *2:632 0.000410278
476 *2:633 2.11568e-05
477 *2:636 0.000545082
478 *2:637 2.20927e-05
479 *2:638 0.000543431
480 *2:640 0.000138189
481 *2:641 5.52757e-05
482 *2:642 0.000144045
483 *2:643 9.17977e-05
484 *2:644 6.88482e-05
485 *2:646 0.000211552
486 *2:647 4.81128e-05
487 *2:648 0.000105784
488 *2:649 2.11568e-05
489 *2:650 0.000164075
490 *2:652 6.6278e-05
491 *2:653 0.000519803
492 *2:654 2.76379e-05
493 *2:655 0.000110551
494 *2:656 5.52757e-05
495 *2:657 5.52757e-05
496 *2:658 6.88482e-05
497 *2:659 0.000116757
498 *2:660 0.000303568
499 *2:662 0.000133612
500 *2:663 4.81128e-05
501 *2:664 0.000126941
502 *2:666 0.000164075
503 *2:669 6.6278e-05
504 *2:670 6.6278e-05
505 *2:671 9.45097e-05
506 *2:675 0.000359292
507 *2:676 4.67028e-05
508 *2:677 0.000116757
509 *2:678 0.000303568
510 *2:679 2.22686e-05
511 *2:680 0.000111343
512 *2:682 0.000454767
513 *2:683 2.11568e-05
514 *2:684 7.10977e-05
515 *2:686 6.6278e-05
516 *2:687 0.000110463
517 *2:691 0.00028667
518 *2:692 0.000304017
519 *2:693 4.67028e-05
520 *2:695 0.000436039
521 *2:696 0.000119088
522 *2:697 2.38177e-05
523 *2:698 0.000454767
524 *2:700 7.10977e-05
525 *2:702 0.000165392
526 *2:703 0.000110463
527 *2:704 0.00028667
528 *2:705 2.40074e-05
529 *2:707 9.17977e-05
530 *2:708 0.000413089
531 *2:709 0.000119088
532 *2:710 2.38177e-05
533 *2:711 0.000254024
534 *2:713 0.000165392
535 *2:715 0.000165392
536 *2:716 0.000151383
537 *2:717 2.40074e-05
538 *2:718 2.33514e-05
539 *2:720 6.88482e-05
540 *2:721 2.22686e-05
541 *2:723 0.00063506
542 *2:726 0.000165392
543 *2:727 0.000327997
544 *2:729 2.33514e-05
545 *2:732 0.00016346
546 *2:733 2.22686e-05
547 *2:735 2.52305e-05
548 *2:736 0.000402205
549 *2:738 0.000176614
550 *2:740 0.000367191
551 *2:741 0.00016346
552 *2:743 2.52305e-05
553 *2:744 5.04611e-05
554 *2:745 2.11687e-05
555 *2:746 0.000127012
556 *2:748 0.000367191
557 *2:749 0.000423498
558 *2:750 0.000148181
559 *2:751 5.04611e-05
560 *2:752 0.000403689
561 *2:753 0.000148181
562 *2:754 0.000420325
563 *2:755 0.000533086
564 *2:757 0.000148181
565 *2:759 0.000403689
566 *2:760 0.000126153
567 *2:761 2.11687e-05
568 *2:762 0.000560434
569 *2:763 2.33514e-05
570 *2:765 0.000136985
571 *2:768 2.11687e-05
572 *2:769 0.000126153
573 *2:771 0.00016346
574 *2:773 0.000206545
575 *2:775 0.00026462
576 *2:776 2.73971e-05
577 *2:777 0.000486879
578 *2:778 0.000254024
579 *2:779 0.000413089
580 *2:780 0.000252444
581 *2:781 0.00026462
582 *2:783 2.54365e-05
583 *2:784 0.000465711
584 *2:785 0.000381036
585 *2:786 4.58988e-05
586 *2:787 0.000481938
587 *2:788 4.58988e-05
588 *2:789 0.000280217
589 *2:790 5.47942e-05
590 *2:792 0.00028186
591 *2:793 0.000151383
592 *2:795 0.000148181
593 *2:796 0.000280217
594 *2:798 0.000206545
595 *2:800 0.000280217
596 *2:801 5.47942e-05
597 *2:802 0.000105784
598 *2:803 0.000256424
599 *2:804 0.000151383
600 *2:805 0.000176614
601 *2:806 2.11687e-05
602 *2:807 0.000280217
603 *2:810 9.17977e-05
604 *2:812 2.29494e-05
605 *2:814 0.000105784
606 *2:815 4.23137e-05
607 *2:816 2.11687e-05
608 *2:817 0.000176614
609 *2:819 0.000137696
610 *2:821 0.000256865
611 *2:822 0.000481938
612 *2:825 0.000275039
613 *2:826 0.000254024
614 *2:827 2.11687e-05
615 *2:828 0.000137696
616 *2:829 0.000256865
617 *2:830 0.000527836
618 *2:831 0.000140108
619 *2:832 0.000232725
620 *2:833 5.12847e-05
621 *2:835 0.000232855
622 *2:836 0.000402205
623 *2:837 0.000381841
624 *2:838 2.29494e-05
625 *2:839 6.88482e-05
626 *2:840 0.000864002
627 *2:841 0.000420325
628 *2:842 0.000153854
629 *2:843 5.12847e-05
630 *2:844 0.000712427
631 *2:845 0.000475802
632 *2:846 0.000613892
633 *2:847 0.000358489
634 *2:848 2.33514e-05
635 *2:849 0.000229494
636 *2:850 2.33514e-05
637 *2:851 0.000864002
638 *2:852 2.29494e-05
639 *2:853 0.000280217
640 *2:854 0.000743629
641 *2:856 0.000176614
642 *2:857 0.000664025
643 *2:858 0.000475802
644 *2:860 0.000232855
645 *2:861 8.49128e-05
646 *2:862 6.88482e-05
647 *2:864 0.000206545
648 *2:865 2.33514e-05
649 *2:866 6.88482e-05
650 *2:867 2.29494e-05
651 *2:868 0.000298342
652 *2:870 0.00117955
653 *2:872 2.11687e-05
654 *2:874 0.000128212
655 *2:876 0.00045415
656 *2:877 6.36846e-05
657 *2:878 0.000445792
658 *2:879 6.88482e-05
659 *2:883 6.88482e-05
660 *2:885 0.000206545
661 *2:886 9.17977e-05
662 *2:889 0.000692344
663 *2:891 2.11687e-05
664 *2:893 0.000275039
665 *2:895 0.000176614
666 *2:896 0.000529841
667 *2:898 0.000354351
668 *2:899 0.000424564
669 *2:900 0.00016346
670 *2:904 2.33514e-05
671 *2:905 0.000140108
672 *2:907 0.000380823
673 *2:908 0.000102569
674 *2:909 0.000227075
675 *2:910 0.000275039
676 *2:911 0.000148181
677 *2:913 0.000327997
678 *2:915 0.000708703
679 *2:916 0.000137803
680 *2:917 0.00016346
681 *2:920 2.33514e-05
682 *2:921 0.000140108
683 *2:922 0.000528921
684 *2:924 0.000227075
685 *2:925 7.69271e-05
686 *2:926 0.000148181
687 *2:928 0.000148181
688 *2:929 7.56916e-05
689 *2:930 0.000354351
690 *2:931 4.24564e-05
691 *2:932 0.000137803
692 *2:936 0.000229494
693 *2:937 0.000901706
694 *2:938 7.69271e-05
695 *2:940 2.11687e-05
696 *2:941 7.69271e-05
697 *2:942 2.52305e-05
698 *2:943 0.000148181
699 *2:944 2.11687e-05
700 *2:945 0.000169826
701 *2:946 4.24564e-05
702 *2:947 0.000106141
703 *2:948 0.000114747
704 *2:949 0.000114747
705 *2:950 0.000753608
706 *2:952 7.69271e-05
707 *2:953 2.11687e-05
708 *2:954 0.000148098
709 *2:955 0.000146299
710 *2:957 0.000381036
711 *2:958 0.000360879
712 *2:959 0.000106141
713 *2:961 2.12282e-05
714 *2:962 0.000658074
715 *2:963 0.000256324
716 *2:965 0.000228868
717 *2:968 0.000105784
718 *2:969 4.23137e-05
719 *2:970 0.00014291
720 *2:972 0.000378458
721 *2:973 0.000359867
722 *2:974 0.000403336
723 *2:976 1.96862e-05
724 *2:980 0.000854234
725 *2:981 0.000412205
726 *2:983 0.000257476
727 *2:986 0.000717986
728 *2:988 2.18413e-05
729 *2:989 0.000269335
730 *2:991 0.000378458
731 *2:992 7.56916e-05
732 *2:993 0.000106141
733 *2:994 0.000137803
734 *2:996 1.96862e-05
735 *2:1001 0.000378379
736 *2:1003 0.000400836
737 *2:1004 2.51874e-05
738 *2:1005 2.86085e-05
739 *2:1006 0.000846198
740 *2:1008 0.000269335
741 *2:1009 2.11687e-05
742 *2:1010 7.56916e-05
743 *2:1011 0.000216548
744 *2:1012 0.000137803
745 *2:1013 4.24564e-05
746 *2:1015 0.000225175
747 *2:1016 9.73057e-05
748 *2:1018 0.000244955
749 *2:1019 2.51874e-05
750 *2:1020 0.000428186
751 *2:1021 0.000148098
752 *2:1022 0.000128212
753 *2:1024 0.000218413
754 *2:1025 2.11687e-05
755 *2:1027 0.000216548
756 *2:1028 2.12282e-05
757 *2:1029 4.24564e-05
758 *2:1030 0.000266115
759 *2:1031 0.000122823
760 *2:1032 4.76353e-05
761 *2:1034 0.000604498
762 *2:1036 0.000148098
763 *2:1037 0.000105784
764 *2:1038 0.000742604
765 *2:1041 8.49128e-05
766 *2:1042 2.12282e-05
767 *2:1043 0.000334665
768 *2:1044 4.09408e-05
769 *2:1046 0.000122823
770 *2:1047 0.000571624
771 *2:1048 0.000176312
772 *2:1052 0.000105784
773 *2:1053 0.000633397
774 *2:1054 2.24446e-05
775 *2:1055 8.49128e-05
776 *2:1057 0.000334665
777 *2:1058 0.000121632
778 *2:1059 4.86529e-05
779 *2:1060 0.000155881
780 *2:1061 0.000595442
781 *2:1063 7.69271e-05
782 *2:1064 0.000109206
783 *2:1065 0.000830449
784 *2:1066 2.24446e-05
785 *2:1069 0.000148597
786 *2:1071 0.000121632
787 *2:1072 4.86529e-05
788 *2:1073 0.000512179
789 *2:1075 9.52707e-05
790 *2:1076 7.69271e-05
791 *2:1077 2.24446e-05
792 *2:1078 0.000830449
793 *2:1081 0.000148597
794 *2:1082 0.000102352
795 *2:1083 2.04704e-05
796 *2:1084 4.76353e-05
797 *2:1085 0.000356298
798 *2:1087 0.000244955
799 *2:1088 2.38177e-05
800 *2:1089 4.23137e-05
801 *2:1090 2.24446e-05
802 *2:1093 0.000102352
803 *2:1094 2.04704e-05
804 *2:1095 4.76353e-05
805 *2:1096 2.38177e-05
806 *2:1097 0.000244955
807 *2:1098 0.000155881
808 *2:1099 4.23137e-05
809 *2:1100 0.000808127
810 *2:1103 4.86529e-05
811 *2:1106 0.000119088
812 *2:1108 0.000267224
813 *2:1109 0.000205139
814 *2:1110 0.000808127
815 *2:1111 0.000159441
816 *2:1113 9.52707e-05
817 *2:1114 0.000556716
818 *2:1116 0.000111343
819 *2:1117 0.000512847
820 *2:1118 0.00024689
821 *2:1119 0.000238157
822 *2:1120 0.000368467
823 *2:1121 4.45373e-05
824 *2:1122 0.000111343
825 *2:1123 0.000690328
826 *2:1124 0.000190541
827 *2:1125 0.000232725
828 *2:1126 0.000722323
829 *2:1127 0.00024689
830 *2:1129 0.000127369
831 *2:1131 0.000368467
832 *2:1132 4.45373e-05
833 *2:1134 2.38177e-05
834 *2:1135 0.000244955
835 *2:1136 0.000214359
836 *2:1137 0.000232725
837 *2:1139 0.000414615
838 *2:1140 6.55238e-05
839 *2:1143 0.000259386
840 *2:1146 2.38177e-05
841 *2:1147 0.000119088
842 *2:1148 0.000133612
843 *2:1149 2.38177e-05
844 *2:1152 0.000225577
845 *2:1153 6.55238e-05
846 *2:1155 0.000259386
847 *2:1156 0.000155881
848 *2:1157 2.38177e-05
849 *2:1158 0.000214359
850 *2:1159 0.000133612
851 *2:1160 0.000534448
852 *2:1161 0.000246084
853 *2:1163 0.000216548
854 *2:1164 0.000155881
855 *2:1168 0.000119088
856 *2:1170 0.000534448
857 *2:1172 2.0507e-05
858 *2:1174 0.000216548
859 *2:1179 0.000155881
860 *2:1180 9.52707e-05
861 *2:1181 0.000217687
862 *2:1183 0.000155881
863 *2:1184 0.000238177
864 *2:1185 0.000217687
865 *2:1186 0.000142906
866 *2:1188 0.000166724
867 *2:1189 2.0507e-05
868 *2:1190 0.000261994
869 *2:1192 0.000155881
870 *2:1193 4.76353e-05
871 *2:1194 0.000246084
872 *2:1196 0.000238177
873 *2:1197 0.000423104
874 *2:1199 2.38177e-05
875 *2:1200 0.000369126
876 *2:1201 0.000391836
877 *2:1204 0.000119088
878 *2:1206 0.000267224
879 *2:1208 0.000244955
880 *2:1209 0.000143549
881 *2:1210 2.17687e-05
882 *2:1211 0.00065306
883 *2:1213 0.000357266
884 *2:1214 0.000119088
885 *2:1215 0.000244955
886 *2:1216 2.17687e-05
887 *2:1217 2.17687e-05
888 *2:1219 0.000261224
889 *2:1220 0.000357266
890 *2:1221 0.000119088
891 *2:1222 2.38177e-05
892 *2:1223 2.17687e-05
893 *2:1226 0.000246084
894 *2:1227 0.000152889
895 *2:1228 2.22686e-05
896 *2:1229 2.38177e-05
897 *2:1232 0.000594703
898 *2:1233 2.0507e-05
899 *2:1234 0.000152889
900 *2:1235 2.22686e-05
901 *2:1238 0.000369126
902 *2:1239 2.17687e-05
903 *2:1240 0.000391836
904 *2:1241 4.48891e-05
905 *2:1245 2.17687e-05
906 *2:1246 0.000544217
907 *2:1247 4.48891e-05
908 *2:1249 2.0507e-05
909 *2:1250 0.000239455
910 *2:1253 2.0507e-05
911 *2:1254 0.000246084
912 *2:1255 8.70747e-05
913 *2:1257 0.00061521
914 *2:1258 0.000225577
915 *2:1259 0.00041014
916 *2:1260 6.5306e-05
917 *2:1261 0.000225577
918 *2:1262 4.1014e-05
919 *2:1263 6.5306e-05
920 *2:1264 6.5306e-05
921 *2:1265 0.00032653
922 *2:1266 0.000108843
923 *2:1267 6.5306e-05
924 *2:1269 0.00032653
925 *2:1270 0.000108843
926 *2:1273 0.000112788
927 *2:1274 0.000102535
928 *2:1276 0.000123042
929 *2:1277 0.000328112
930 *2 1.02535e-05
931 *2:1279 0.000225577
932 *2:1281 0.000282993
933 *2:1282 0.000304761
934 *2:1283 2.17687e-05
935 *2:1285 2.0507e-05
936 *2:1287 0.000369126
937 *2:1288 0.000492168
938 *2:1289 0.000544217
939 *2:1290 0.000143549
940 *2:1292 0.000544217
941 *2:1293 0.000370067
942 *2:1294 0.000143549
943 *2:1295 0.000478911
944 *2:1296 0.000123042
945 *2:1297 2.0507e-05
946 *2:1298 0.000256367
947 *2:1299 0.000108843
948 *2:1300 0.000544217
949 *2:1301 2.17687e-05
950 *2:1302 0.000443882
951 *2:1304 0.000565985
952 *2:1305 2.17687e-05
953 *2:1306 2.17687e-05
954 *2:1307 0.000421908
955 *2:1308 0.000118496
956 *2:1310 4.35373e-05
957 *2:1311 0.000369126
958 *2:1314 0.000234394
959 *2:1315 0.000142195
960 *2:1316 0.000118496
961 *2:1318 0.000369126
962 *2:1321 0.000402887
963 *2:1322 0.000142195
964 *2:1325 0.000118528
965 *2:1326 0.000450285
966 *2:1329 0.000118528
967 *2:1330 4.73985e-05
968 *2:1334 0.000421908
969 *2:1337 0.000421908
970 *2:1338 4.73985e-05
971 *2:1339 4.73985e-05

*RES
1 *2:1340 *1385:CK 1.4
2 *2:1339 *2:1340 1.4
3 *2:1338 *2:1339 0.248577
4 *2:1337 *2:1338 1.4
5 *2:1334 *2:1337 2.23709
6 *2:1333 *724:CK 1.4
7 *2:1331 *1387:CK 1.4
8 *2:1330 *2:1334 1.4
9 *2:1329 *2:1333 1.4
10 *2:1327 *1384:CK 1.4
11 *2:1326 *2:1331 1.4
12 *2:1326 *2:1330 0.248577
13 *2:1325 *2:1329 0.621429
14 *2:1323 *845:CK 1.4
15 *2:1322 *2:1327 1.4
16 *2:1321 *2:1326 2.11291
17 *2:1318 *2:1325 1.4
18 *2:1317 *1220:CK 1.4
19 *2:1316 *2:1323 1.4
20 *2:1315 *2:1322 0.745732
21 *2:1314 *2:1321 1.4
22 *2:1313 *815:CK 1.4
23 *2:1312 *1234:CK 1.4
24 *2:1311 *2:1318 2.2371
25 *2:1310 *2:1317 1.4
26 *2:1308 *2:1316 0.621444
27 *2:1307 *2:1315 1.4
28 *2:1307 *2:1314 1.24283
29 *2:1306 *2:1313 1.4
30 *2:1305 *2:1312 1.4
31 *2:1304 *2:1311 1.4
32 *2:1304 *2:1310 0.248578
33 *2:1303 *830:CK 1.4
34 *2:1302 *2:1308 1.4
35 *2:1302 *2:1307 0.994261
36 *2:1301 *2:1306 0.124289
37 *2:1300 *2:1305 0.124289
38 *2:1300 *2:1304 2.98293
39 *2:1299 *2:1303 1.4
40 *2:1298 *2:1302 1.36711
41 *2:1297 *2:1301 1.4
42 *2:1296 *2:1300 1.4
43 *2:1295 *2:1299 0.621444
44 *2:1295 *2:1298 1.4
45 *2:1294 *2:1297 0.124283
46 *2:1294 *2:1296 0.7457
47 *2:1293 *2:1295 2.11291
48 *2:1292 *2:1294 1.4
49 *2:1290 *2:1293 1.4
50 *2:1289 *2:1292 3.10722
51 *2:1288 *1248:CK 1.4
52 *2:1288 *2:1290 0.869983
53 *2:1287 *2:1289 1.4
54 *2:1287 *2:1288 2.11282
55 *2:1285 *2:1287 0.124283
56 *2:1284 *740:CK 1.4
57 *2:1283 *2:1285 1.4
58 *2:1282 *2:1284 1.4
59 *2:1282 *2:1283 0.124289
60 *2:1281 *2:1282 1.61575
61 *2:1279 *2:1281 1.4
62 *2:1277 *785:CK 1.4
63 *2:1277 *2:1279 1.36712
64 *2:1276 *2 0.0621417
65 *2:1274 *2:1277 0.621417
66 *2:1273 *2:1276 0.683558
67 *2:1271 *905:CK 1.4
68 *2:1270 *2:1274 1.4
69 *2:1269 *2:1273 1.4
70 *2:1268 *890:CK 1.4
71 *2:1267 *2:1271 1.4
72 *2:1266 *2:1270 0.621444
73 *2:1265 *2:1269 1.86433
74 *2:1264 *2:1268 1.4
75 *2:1263 *2:1267 0.372866
76 *2:1262 *2:1266 1.4
77 *2:1261 *2:1265 1.4
78 *2:1260 *2:1264 0.372866
79 *2:1259 *2:1263 1.4
80 *2:1259 *2:1262 0.248567
81 *2:1258 *2:1261 1.36712
82 *2:1257 *2:1260 1.4
83 *2:1257 *2:1259 2.2371
84 *2:1255 *2:1258 1.4
85 *2:1254 *2:1257 1.4914
86 *2:1253 *770:CK 1.4
87 *2:1250 *2:1255 0.497155
88 *2:1250 *2:1254 1.4
89 *2:1249 *2:1253 0.124283
90 *2:1248 *875:CK 1.4
91 *2:1247 *1383:CK 1.4
92 *2:1246 *2:1250 0.870021
93 *2:1246 *2:1249 1.4
94 *2:1245 *2:1248 1.4
95 *2:1241 *2:1247 0.248577
96 *2:1240 *2:1246 2.2372
97 *2:1239 *2:1245 0.124289
98 *2:1238 *860:CK 1.4
99 *2:1236 *1229:CK 1.4
100 *2:1235 *1235:CK 1.4
101 *2:1234 *2:1241 1.4
102 *2:1233 *2:1240 1.4
103 *2:1232 *2:1239 1.4
104 *2:1232 *2:1238 2.2371
105 *2:1230 *725:CK 1.4
106 *2:1229 *2:1236 1.4
107 *2:1228 *2:1235 0.124288
108 *2:1227 *2:1234 0.869981
109 *2:1226 *2:1233 0.124283
110 *2:1226 *2:1232 1.36712
111 *2:1224 *800:CK 1.4
112 *2:1223 *2:1230 1.4
113 *2:1222 *2:1229 0.124283
114 *2:1221 *2:1228 1.4
115 *2:1220 *2:1227 1.4
116 *2:1219 *2:1226 1.4
117 *2:1218 *755:CK 1.4
118 *2:1217 *2:1224 1.4
119 *2:1216 *2:1223 0.124289
120 *2:1215 *2:1222 1.4
121 *2:1214 *2:1221 0.621413
122 *2:1213 *2:1220 1.98861
123 *2:1211 *2:1219 1.49146
124 *2:1211 *2:1218 1.4
125 *2:1210 *2:1217 0.124289
126 *2:1209 *2:1216 1.4
127 *2:1208 *2:1215 1.36717
128 *2:1206 *2:1214 1.4
129 *2:1204 *2:1213 1.4
130 *2:1203 *925:CK 1.4
131 *2:1201 *2:1211 2.2372
132 *2:1200 *2:1210 1.4
133 *2:1200 *2:1209 0.869983
134 *2:1199 *2:1208 1.4
135 *2:1198 *854:CK 1.4
136 *2:1197 *2:1206 1.49145
137 *2:1197 *1249:CK 1.4
138 *2:1196 *2:1204 0.621413
139 *2:1196 *2:1203 1.4
140 *2:1195 *1413:CK 1.4
141 *2:1194 *2:1201 1.4
142 *2:1194 *2:1200 1.36712
143 *2:1193 *2:1199 0.124283
144 *2:1193 *2:1198 1.4
145 *2:1192 *2:1197 0.870015
146 *2:1190 *2:1196 0.621413
147 *2:1190 *2:1195 1.4
148 *2:1189 *2:1194 0.124283
149 *2:1188 *2:1193 0.124283
150 *2:1188 *2:1192 1.4
151 *2:1187 *839:CK 1.4
152 *2:1186 *2:1190 0.745696
153 *2:1185 *2:1189 1.4
154 *2:1184 *2:1188 0.745696
155 *2:1184 *2:1187 1.4
156 *2:1183 *2:1186 1.4
157 *2:1181 *2:1185 1.24289
158 *2:1180 *2:1184 0.497131
159 *2:1179 *2:1183 0.870015
160 *2:1174 *783:CK 1.4
161 *2:1172 *2:1181 1.4
162 *2:1170 *2:1180 1.4
163 *2:1168 *2:1179 1.4
164 *2:1167 *1243:CK 1.4
165 *2:1166 *1414:CK 1.4
166 *2:1164 *1257:CK 1.4
167 *2:1163 *813:CK 1.4
168 *2:1163 *2:1174 1.36711
169 *2:1162 *1358:CK 1.4
170 *2:1161 *2:1172 0.124283
171 *2:1161 *799:CK 1.4
172 *2:1160 *2:1170 2.98291
173 *2:1159 *734:CK 1.4
174 *2:1158 *2:1168 0.621413
175 *2:1158 *2:1167 1.4
176 *2:1157 *2:1166 1.4
177 *2:1156 *869:CK 1.4
178 *2:1156 *2:1164 0.870015
179 *2:1155 *2:1163 1.4
180 *2:1153 *2:1162 1.4
181 *2:1152 *2:1161 1.36712
182 *2:1149 *2:1160 1.4
183 *2:1148 *2:1159 0.745727
184 *2:1147 *2:1158 0.497131
185 *2:1147 *2:1157 0.124283
186 *2:1146 *2:1156 1.4
187 *2:1143 *2:1155 1.49146
188 *2:1141 *812:CK 1.4
189 *2:1140 *2:1153 0.372849
190 *2:1139 *2:1152 1.4
191 *2:1138 *889:CK 1.4
192 *2:1137 *769:CK 1.4
193 *2:1136 *2:1149 0.124283
194 *2:1136 *2:1148 1.4
195 *2:1135 *2:1147 1.4
196 *2:1134 *2:1146 0.124283
197 *2:1132 *884:CK 1.4
198 *2:1131 *798:CK 1.4
199 *2:1131 *2:1143 1.4
200 *2:1130 *782:CK 1.4
201 *2:1129 *2:1141 1.4
202 *2:1127 *2:1140 1.4
203 *2:1126 *2:1139 2.11284
204 *2:1126 *2:1138 1.4
205 *2:1125 *2:1137 1.36717
206 *2:1124 *2:1136 0.994261
207 *2:1123 *2:1135 1.36717
208 *2:1123 *2:1134 1.4
209 *2:1122 *764:CK 1.4
210 *2:1121 *2:1132 0.248576
211 *2:1120 *2:1131 2.23718
212 *2:1119 *2:1130 1.4
213 *2:1119 *2:1129 0.745732
214 *2:1118 *1359:CK 1.4
215 *2:1118 *2:1127 1.36717
216 *2:1117 *2:1126 1.49139
217 *2:1117 *2:1125 1.4
218 *2:1116 *2:1124 1.4
219 *2:1114 *2:1123 2.48576
220 *2:1114 *2:1122 0.621439
221 *2:1113 *2:1121 1.4
222 *2:1111 *2:1120 1.4
223 *2:1111 *2:1119 0.621444
224 *2:1110 *2:1118 1.4
225 *2:1109 *2:1117 0.994261
226 *2:1108 *2:1116 0.621439
227 *2:1108 *749:CK 1.4
228 *2:1106 *2:1114 1.4
229 *2:1106 *2:1113 0.497131
230 *2:1105 *1245:CK 1.4
231 *2:1103 *2:1111 0.248578
232 *2:1100 *2:1110 4.59847
233 *2:1099 *2:1109 1.4
234 *2:1098 *2:1108 0.870015
235 *2:1097 *841:CK 1.4
236 *2:1096 *2:1106 0.124283
237 *2:1095 *2:1105 1.4
238 *2:1094 *737:CK 1.4
239 *2:1093 *2:1103 1.4
240 *2:1092 *828:CK 1.4
241 *2:1090 *1367:CK 1.4
242 *2:1090 *2:1100 1.4
243 *2:1089 *2:1099 0.248576
244 *2:1088 *2:1098 1.4
245 *2:1087 *2:1097 1.36717
246 *2:1085 *2:1096 1.4
247 *2:1084 *2:1095 0.248565
248 *2:1083 *2:1094 0.124288
249 *2:1082 *2:1093 0.621439
250 *2:1081 *2:1092 1.4
251 *2:1078 *1368:CK 1.4
252 *2:1077 *2:1090 0.124288
253 *2:1076 *2:1089 1.4
254 *2:1075 *2:1088 0.124283
255 *2:1075 *2:1087 1.4
256 *2:1074 *811:CK 1.4
257 *2:1073 *2:1085 1.9886
258 *2:1073 *2:1084 1.4
259 *2:1072 *2:1083 1.4
260 *2:1071 *2:1082 1.4
261 *2:1069 *2:1081 0.870021
262 *2:1067 *887:CK 1.4
263 *2:1066 *771:CK 1.4
264 *2:1065 *2:1078 4.59867
265 *2:1064 *2:1077 1.4
266 *2:1063 *2:1076 0.372848
267 *2:1061 *2:1075 0.372848
268 *2:1061 *2:1074 1.4
269 *2:1060 *2:1073 0.870015
270 *2:1059 *2:1072 0.248578
271 *2:1058 *2:1071 0.621444
272 *2:1057 *768:CK 1.4
273 *2:1057 *2:1069 1.4
274 *2:1056 *888:CK 1.4
275 *2:1055 *2:1067 1.4
276 *2:1054 *2:1066 0.124288
277 *2:1053 *2:1065 1.4
278 *2:1053 *2:1064 0.621415
279 *2:1052 *2:1063 1.4
280 *2:1048 *1223:CK 1.4
281 *2:1047 *2:1061 2.73422
282 *2:1047 *2:1060 1.4
283 *2:1046 *2:1059 1.4
284 *2:1044 *2:1058 1.4
285 *2:1043 *2:1057 2.11281
286 *2:1042 *2:1056 1.4
287 *2:1041 *2:1055 0.497155
288 *2:1038 *2:1054 1.4
289 *2:1038 *2:1053 2.98279
290 *2:1037 *2:1052 0.621441
291 *2:1037 *784:CK 1.4
292 *2:1036 *904:CK 1.4
293 *2:1034 *1247:CK 1.4
294 *2:1034 *2:1048 0.870014
295 *2:1032 *2:1047 0.248565
296 *2:1031 *2:1046 0.745727
297 *2:1030 *917:CK 1.4
298 *2:1030 *2:1044 0.248576
299 *2:1029 *2:1043 1.4
300 *2:1028 *2:1042 0.124289
301 *2:1027 *2:1041 1.4
302 *2:1026 *906:CK 1.4
303 *2:1025 *891:CK 1.4
304 *2:1024 *2:1038 1.24283
305 *2:1022 *2:1037 1.4
306 *2:1021 *2:1036 0.870017
307 *2:1021 *874:CK 1.4
308 *2:1020 *2:1034 2.11289
309 *2:1019 *1219:CK 1.4
310 *2:1018 *2:1032 1.4
311 *2:1016 *2:1031 1.4
312 *2:1015 *2:1030 1.36717
313 *2:1013 *2:1029 0.248578
314 *2:1012 *2:1028 1.4
315 *2:1011 *2:1027 1.36711
316 *2:1010 *2:1026 1.4
317 *2:1009 *2:1025 0.124289
318 *2:1008 *2:1024 1.4
319 *2:1007 *1370:CK 1.4
320 *2:1006 *2:1022 0.621413
321 *2:1006 *2:1021 1.4
322 *2:1005 *2:1020 1.4
323 *2:1004 *2:1019 0.124288
324 *2:1003 *2:1018 1.36717
325 *2:1003 *766:CK 1.4
326 *2:1001 *2:1016 0.497155
327 *2:1001 *2:1015 1.4
328 *2:1000 *797:CK 1.4
329 *2:996 *2:1013 1.4
330 *2:994 *2:1012 0.869979
331 *2:993 *2:1011 1.4
332 *2:992 *2:1010 0.372848
333 *2:991 *2:1009 1.4
334 *2:989 *2:1008 1.49146
335 *2:988 *2:1007 1.4
336 *2:986 *2:1006 3.47991
337 *2:983 *2:1005 0.124289
338 *2:983 *2:1004 1.4
339 *2:981 *2:1003 0.870015
340 *2:981 *871:CK 1.4
341 *2:980 *2:1001 1.49146
342 *2:980 *2:1000 1.4
343 *2:979 *738:CK 1.4
344 *2:978 *873:CK 1.4
345 *2:976 *827:CK 1.4
346 *2:976 *2:996 0.124283
347 *2:975 *767:CK 1.4
348 *2:974 *2:994 1.4
349 *2:974 *2:993 0.621444
350 *2:973 *2:992 1.4
351 *2:972 *2:991 1.86424
352 *2:971 *786:CK 1.4
353 *2:970 *2:989 1.4
354 *2:970 *2:988 0.124283
355 *2:969 *757:CK 1.4
356 *2:968 *2:986 1.4
357 *2:968 *877:CK 1.4
358 *2:966 *844:CK 1.4
359 *2:965 *2:983 0.99431
360 *2:964 *1259:CK 1.4
361 *2:963 *2:981 1.36713
362 *2:962 *2:980 3.3558
363 *2:962 *2:979 1.4
364 *2:961 *2:978 1.4
365 *2:960 *753:CK 1.4
366 *2:959 *2:976 1.4
367 *2:958 *2:975 1.4
368 *2:958 *2:974 1.74004
369 *2:957 *2:973 2.11291
370 *2:957 *2:972 1.4
371 *2:955 *2:971 1.4
372 *2:955 *2:970 0.621414
373 *2:954 *2:969 0.248576
374 *2:954 *2:968 0.621441
375 *2:953 *907:CK 1.4
376 *2:952 *2:966 1.4
377 *2:950 *2:965 1.4
378 *2:949 *2:964 1.4
379 *2:948 *2:963 1.4
380 *2:947 *2:962 0.497155
381 *2:947 *2:961 0.124289
382 *2:946 *2:960 1.4
383 *2:945 *2:959 0.621444
384 *2:945 *2:958 0.372866
385 *2:944 *2:957 0.124289
386 *2:943 *787:CK 1.4
387 *2:942 *2:955 0.124283
388 *2:941 *2:954 1.4
389 *2:940 *2:953 0.124289
390 *2:938 *2:952 0.372848
391 *2:937 *829:CK 1.4
392 *2:937 *2:950 3.72863
393 *2:936 *2:949 0.621444
394 *2:936 *2:948 0.621444
395 *2:932 *2:947 1.4
396 *2:931 *2:946 0.248578
397 *2:930 *2:945 1.4
398 *2:929 *2:944 1.4
399 *2:928 *2:943 0.870021
400 *2:926 *2:942 1.4
401 *2:925 *2:941 0.372848
402 *2:924 *2:940 1.4
403 *2:923 *814:CK 1.4
404 *2:922 *2:938 1.4
405 *2:922 *2:937 0.870017
406 *2:921 *2:936 1.4
407 *2:920 *886:CK 1.4
408 *2:917 *872:CK 1.4
409 *2:916 *857:CK 1.4
410 *2:916 *2:932 0.869979
411 *2:915 *2:931 1.4
412 *2:915 *2:930 2.23709
413 *2:913 *2:929 0.372848
414 *2:913 *2:928 1.4
415 *2:912 *756:CK 1.4
416 *2:911 *2:926 0.870021
417 *2:910 *2:925 1.4
418 *2:909 *2:924 1.11854
419 *2:908 *2:923 1.4
420 *2:907 *2:922 2.23719
421 *2:905 *2:921 0.745707
422 *2:904 *2:920 0.124285
423 *2:902 *1260:CK 1.4
424 *2:900 *1246:CK 1.4
425 *2:900 *2:917 0.869992
426 *2:899 *2:916 1.4
427 *2:898 *2:915 2.23709
428 *2:897 *752:CK 1.4
429 *2:896 *2:913 1.24283
430 *2:896 *2:912 1.4
431 *2:895 *2:911 1.4
432 *2:893 *2:910 1.61575
433 *2:891 *2:909 1.4
434 *2:889 *2:908 0.497131
435 *2:889 *2:907 1.4
436 *2:888 *859:CK 1.4
437 *2:886 *2:905 1.4
438 *2:885 *2:904 1.4
439 *2:884 *1255:CK 1.4
440 *2:883 *2:902 1.4
441 *2:881 *1232:CK 1.4
442 *2:879 *2:900 1.4
443 *2:878 *2:899 2.48577
444 *2:878 *2:898 1.4
445 *2:877 *2:897 1.4
446 *2:876 *2:896 1.36711
447 *2:876 *2:895 0.869979
448 *2:875 *1412:CK 1.4
449 *2:874 *2:893 1.4
450 *2:873 *754:CK 1.4
451 *2:872 *2:891 0.124289
452 *2:872 *772:CK 1.4
453 *2:870 *2:889 2.8585
454 *2:870 *2:888 1.4
455 *2:869 *742:CK 1.4
456 *2:868 *2:886 0.497155
457 *2:868 *2:885 1.1186
458 *2:867 *2:884 1.4
459 *2:866 *2:883 0.372866
460 *2:865 *1241:CK 1.4
461 *2:864 *2:881 1.4
462 *2:863 *842:CK 1.4
463 *2:862 *2:879 0.372866
464 *2:861 *2:878 0.124289
465 *2:861 *2:877 0.372866
466 *2:860 *2:876 1.4
467 *2:858 *2:875 1.4
468 *2:857 *2:874 0.621413
469 *2:857 *2:873 1.4
470 *2:856 *2:872 1.4
471 *2:855 *739:CK 1.4
472 *2:854 *2:870 2.8585
473 *2:854 *2:869 1.4
474 *2:853 *2:868 1.4
475 *2:852 *2:867 0.124289
476 *2:851 *2:866 1.4
477 *2:850 *2:865 0.124285
478 *2:849 *2:864 1.1186
479 *2:849 *2:863 1.4
480 *2:848 *2:862 1.4
481 *2:847 *2:861 1.4
482 *2:846 *2:860 1.36718
483 *2:846 *876:CK 1.4
484 *2:845 *2:858 2.48566
485 *2:844 *2:857 2.60994
486 *2:844 *2:856 0.869979
487 *2:843 *2:855 1.4
488 *2:842 *2:854 0.745696
489 *2:841 *2:853 1.49141
490 *2:841 *2:852 1.4
491 *2:840 *2:851 4.59853
492 *2:839 *2:850 1.4
493 *2:838 *2:849 0.124289
494 *2:837 *2:848 0.124285
495 *2:837 *2:847 2.11282
496 *2:836 *2:846 2.2372
497 *2:836 *2:845 1.4
498 *2:835 *2:844 1.4
499 *2:833 *2:843 0.248565
500 *2:832 *2:842 1.4
501 *2:831 *2:841 0.745707
502 *2:830 *2:840 1.4
503 *2:830 *2:839 0.372866
504 *2:829 *2:838 1.4
505 *2:828 *2:837 1.4
506 *2:827 *2:836 0.124289
507 *2:826 *2:835 1.36718
508 *2:826 *892:CK 1.4
509 *2:825 *2:833 1.4
510 *2:825 *2:832 1.36717
511 *2:822 *2:831 1.4
512 *2:822 *2:830 2.48577
513 *2:821 *2:829 1.36713
514 *2:819 *2:828 0.745732
515 *2:817 *2:827 1.4
516 *2:816 *2:826 0.124289
517 *2:815 *2:825 0.248576
518 *2:814 *727:CK 1.4
519 *2:813 *1227:CK 1.4
520 *2:812 *2:822 0.124289
521 *2:810 *2:821 1.4
522 *2:809 *822:CK 1.4
523 *2:807 *2:819 1.4
524 *2:806 *861:CK 1.4
525 *2:805 *2:817 0.869979
526 *2:804 *2:816 1.4
527 *2:803 *2:815 1.4
528 *2:802 *2:814 0.621441
529 *2:801 *2:813 1.4
530 *2:800 *2:812 1.4
531 *2:799 *867:CK 1.4
532 *2:798 *2:810 0.497155
533 *2:798 *2:809 1.4
534 *2:797 *882:CK 1.4
535 *2:796 *2:807 1.49141
536 *2:795 *2:806 0.124289
537 *2:795 *2:805 1.4
538 *2:793 *2:804 0.745696
539 *2:792 *2:803 1.24283
540 *2:792 *2:802 1.4
541 *2:790 *2:801 0.248577
542 *2:789 *2:800 1.49141
543 *2:788 *2:799 1.4
544 *2:787 *2:798 0.621444
545 *2:787 *2:797 1.4
546 *2:786 *2:796 1.4
547 *2:785 *2:795 0.745732
548 *2:785 *801:CK 1.4
549 *2:784 *2:793 1.4
550 *2:783 *2:792 0.124283
551 *2:782 *796:CK 1.4
552 *2:781 *2:790 1.4
553 *2:780 *2:789 1.4
554 *2:780 *2:788 0.248578
555 *2:779 *2:787 1.98862
556 *2:779 *2:786 0.248578
557 *2:778 *2:785 1.49146
558 *2:777 *2:784 2.73435
559 *2:777 *2:783 1.4
560 *2:776 *2:782 1.4
561 *2:775 *2:781 1.36718
562 *2:773 *2:780 1.1186
563 *2:771 *2:779 1.4
564 *2:769 *2:778 1.4
565 *2:768 *2:777 0.124289
566 *2:765 *2:776 0.124289
567 *2:765 *2:775 1.4
568 *2:764 *852:CK 1.4
569 *2:763 *2:773 1.4
570 *2:762 *762:CK 1.4
571 *2:762 *2:771 0.869992
572 *2:761 *816:CK 1.4
573 *2:760 *2:769 0.621413
574 *2:759 *2:768 1.4
575 *2:758 *802:CK 1.4
576 *2:757 *741:CK 1.4
577 *2:755 *2:765 0.497155
578 *2:755 *2:764 1.4
579 *2:754 *2:763 0.124285
580 *2:754 *2:762 2.11284
581 *2:753 *2:761 0.124289
582 *2:753 *2:760 1.4
583 *2:752 *2:759 1.98852
584 *2:751 *2:758 1.4
585 *2:750 *2:757 0.870021
586 *2:750 *726:CK 1.4
587 *2:749 *2:755 2.11291
588 *2:748 *2:754 1.4
589 *2:746 *2:753 0.745732
590 *2:745 *2:752 1.4
591 *2:744 *2:751 0.248565
592 *2:743 *2:750 1.4
593 *2:741 *2:749 1.4
594 *2:740 *2:748 1.98862
595 *2:739 *831:CK 1.4
596 *2:738 *2:746 1.4
597 *2:736 *2:745 0.124289
598 *2:736 *2:744 1.4
599 *2:735 *2:743 0.124283
600 *2:733 *856:CK 1.4
601 *2:732 *2:741 0.869992
602 *2:729 *2:740 1.4
603 *2:727 *2:739 1.4
604 *2:727 *2:738 0.869979
605 *2:726 *774:CK 1.4
606 *2:723 *2:736 2.2372
607 *2:723 *2:735 1.4
608 *2:722 *809:CK 1.4
609 *2:721 *2:733 0.124288
610 *2:720 *2:732 1.4
611 *2:719 *777:CK 1.4
612 *2:718 *837:CK 1.4
613 *2:718 *2:729 0.124285
614 *2:717 *832:CK 1.4
615 *2:716 *2:727 0.745696
616 *2:715 *2:726 0.869979
617 *2:713 *744:CK 1.4
618 *2:712 *729:CK 1.4
619 *2:711 *2:723 1.49146
620 *2:710 *2:722 1.4
621 *2:709 *2:721 1.4
622 *2:708 *2:720 0.372866
623 *2:708 *2:719 1.4
624 *2:707 *2:718 1.4
625 *2:705 *2:717 0.124283
626 *2:704 *2:716 1.4
627 *2:703 *2:715 1.4
628 *2:702 *789:CK 1.4
629 *2:702 *2:713 0.869979
630 *2:700 *2:712 1.4
631 *2:698 *2:711 1.4
632 *2:697 *2:710 0.124283
633 *2:696 *2:709 0.621413
634 *2:695 *2:708 1.86433
635 *2:695 *2:707 0.497155
636 *2:693 *732:CK 1.4
637 *2:692 *2:705 1.4
638 *2:691 *2:704 1.4914
639 *2:687 *2:703 0.621444
640 *2:686 *2:702 1.4
641 *2:685 *895:CK 1.4
642 *2:684 *2:700 0.372866
643 *2:683 *847:CK 1.4
644 *2:682 *2:698 2.23709
645 *2:680 *2:697 1.4
646 *2:679 *2:696 1.4
647 *2:678 *2:695 1.4
648 *2:677 *751:CK 1.4
649 *2:676 *2:693 0.248569
650 *2:675 *2:692 1.36717
651 *2:675 *2:691 1.4
652 *2:674 *846:CK 1.4
653 *2:673 *817:CK 1.4
654 *2:672 *862:CK 1.4
655 *2:671 *2:687 1.4
656 *2:670 *2:686 0.372866
657 *2:669 *2:685 1.4
658 *2:666 *2:684 1.4
659 *2:664 *2:683 0.124288
660 *2:664 *2:682 1.4
661 *2:663 *781:CK 1.4
662 *2:662 *2:680 0.621439
663 *2:662 *2:679 0.124288
664 *2:660 *2:678 1.6157
665 *2:659 *2:677 0.621423
666 *2:658 *2:676 1.4
667 *2:657 *2:675 0.248576
668 *2:656 *2:674 1.4
669 *2:655 *2:673 1.4
670 *2:654 *2:672 1.4
671 *2:653 *2:671 0.497131
672 *2:653 *2:670 1.4
673 *2:652 *2:669 0.372866
674 *2:651 *851:CK 1.4
675 *2:650 *1224:CK 1.4
676 *2:650 *2:666 0.869979
677 *2:649 *1236:CK 1.4
678 *2:648 *2:664 0.621441
679 *2:647 *2:663 0.248578
680 *2:646 *2:662 1.4
681 *2:645 *826:CK 1.4
682 *2:644 *2:660 1.4
683 *2:643 *2:659 1.4
684 *2:643 *2:658 0.372866
685 *2:642 *2:657 1.4
686 *2:641 *2:656 0.248576
687 *2:640 *2:655 0.497153
688 *2:640 *2:654 0.124288
689 *2:638 *2:653 2.23709
690 *2:638 *2:652 1.4
691 *2:637 *2:651 1.4
692 *2:636 *2:650 1.4
693 *2:633 *2:649 0.124288
694 *2:632 *2:648 1.4
695 *2:631 *2:647 1.4
696 *2:630 *2:646 0.994292
697 *2:629 *2:645 1.4
698 *2:628 *2:644 0.372866
699 *2:628 *2:643 0.124289
700 *2:626 *2:642 0.745696
701 *2:626 *2:641 1.4
702 *2:625 *2:640 1.4
703 *2:624 *818:CK 1.4
704 *2:622 *2:638 0.621413
705 *2:620 *2:637 0.124289
706 *2:618 *2:636 2.85864
707 *2:617 *1386:CK 1.4
708 *2:615 *909:CK 1.4
709 *2:614 *2:633 1.4
710 *2:614 *2:632 1.98852
711 *2:613 *2:631 0.99431
712 *2:611 *2:630 1.4
713 *2:610 *2:629 0.124288
714 *2:609 *2:628 1.4
715 *2:608 *1221:CK 1.4
716 *2:607 *2:626 1.98852
717 *2:606 *2:625 2.11281
718 *2:606 *2:624 0.124283
719 *2:605 *1222:CK 1.4
720 *2:603 *2:622 1.4
721 *2:602 *910:CK 1.4
722 *2:601 *2:620 1.4
723 *2:600 *1240:CK 1.4
724 *2:598 *2:618 1.4
725 *2:597 *2:617 1.4
726 *2:596 *894:CK 1.4
727 *2:596 *2:615 0.869979
728 *2:593 *2:614 0.124283
729 *2:592 *2:613 1.4
730 *2:590 *736:CK 1.4
731 *2:589 *2:611 1.61567
732 *2:589 *2:610 1.4
733 *2:587 *2:609 0.621423
734 *2:586 *2:608 0.621413
735 *2:585 *2:607 1.4
736 *2:584 *2:606 1.4
737 *2:583 *2:605 0.745696
738 *2:582 *899:CK 1.4
739 *2:581 *2:603 1.36718
740 *2:580 *2:602 0.124283
741 *2:579 *2:601 1.36711
742 *2:578 *2:600 1.4
743 *2:577 *819:CK 1.4
744 *2:576 *2:598 0.621413
745 *2:575 *2:597 0.497155
746 *2:574 *2:596 1.4
747 *2:573 *878:CK 1.4
748 *2:572 *1233:CK 1.4
749 *2:571 *2:593 1.4
750 *2:570 *2:592 1.86433
751 *2:569 *901:CK 1.4
752 *2:568 *2:590 1.4
753 *2:567 *2:589 2.23715
754 *2:566 *807:CK 1.4
755 *2:565 *2:587 1.4
756 *2:564 *2:586 1.4
757 *2:564 *2:585 0.497153
758 *2:563 *2:584 0.497153
759 *2:563 *2:583 1.4
760 *2:562 *2:582 0.124283
761 *2:561 *2:581 1.4
762 *2:559 *2:580 1.4
763 *2:558 *2:579 1.4
764 *2:558 *2:578 0.124289
765 *2:557 *2:577 0.621413
766 *2:556 *2:576 1.4
767 *2:554 *2:575 1.4
768 *2:553 *2:574 0.497155
769 *2:552 *2:573 0.124288
770 *2:551 *2:572 1.4
771 *2:550 *2:571 1.61574
772 *2:549 *2:570 1.4
773 *2:548 *2:569 0.248578
774 *2:547 *2:568 0.124289
775 *2:547 *2:567 1.4
776 *2:546 *2:566 1.4
777 *2:545 *2:565 3.23151
778 *2:543 *2:564 0.621441
779 *2:542 *2:563 2.85863
780 *2:542 *2:562 1.4
781 *2:541 *2:561 0.248565
782 *2:541 *850:CK 1.4
783 *2:540 *2:559 1.74004
784 *2:539 *2:558 1.98862
785 *2:538 *2:557 1.4
786 *2:538 *2:556 0.870021
787 *2:537 *879:CK 1.4
788 *2:535 *2:554 2.23709
789 *2:535 *2:553 1.4
790 *2:534 *2:552 1.4
791 *2:533 *2:551 0.870021
792 *2:532 *2:550 1.4
793 *2:530 *2:549 0.870021
794 *2:530 *2:548 1.4
795 *2:529 *2:547 0.372866
796 *2:529 *2:546 0.124289
797 *2:528 *2:545 1.4
798 *2:528 *747:CK 1.4
799 *2:527 *2:543 1.4
800 *2:526 *2:542 0.372865
801 *2:525 *2:541 1.24283
802 *2:525 *2:540 1.4
803 *2:524 *2:539 1.4
804 *2:523 *2:538 0.745732
805 *2:522 *2:537 1.4
806 *2:521 *804:CK 1.4
807 *2:520 *2:535 0.869979
808 *2:519 *2:534 0.621444
809 *2:518 *2:533 1.4
810 *2:517 *2:532 1.49146
811 *2:516 *728:CK 1.4
812 *2:515 *2:530 0.248577
813 *2:513 *2:529 1.4
814 *2:512 *2:528 0.124285
815 *2:511 *2:527 0.124283
816 *2:511 *2:526 1.4
817 *2:510 *2:525 0.248565
818 *2:509 *2:524 0.745696
819 *2:508 *2:523 1.4
820 *2:507 *2:522 0.124289
821 *2:506 *2:521 1.4
822 *2:505 *2:520 1.4
823 *2:503 *2:519 1.4
824 *2:502 *2:518 0.124288
825 *2:502 *2:517 1.4
826 *2:500 *2:516 1.4
827 *2:499 *2:515 1.4
828 *2:498 *1231:CK 1.4
829 *2:497 *2:513 2.36149
830 *2:496 *2:512 1.4
831 *2:495 *2:511 2.36137
832 *2:493 *2:510 1.4
833 *2:492 *2:509 1.4
834 *2:491 *2:508 0.248565
835 *2:491 *2:507 1.4
836 *2:490 *2:506 0.124289
837 *2:489 *2:505 2.98293
838 *2:488 *833:CK 1.4
839 *2:488 *2:503 0.124288
840 *2:487 *2:502 2.11289
841 *2:487 *1250:CK 1.4
842 *2:486 *2:500 0.124288
843 *2:484 *2:499 0.497155
844 *2:483 *2:498 0.124289
845 *2:482 *2:497 1.4
846 *2:482 *2:496 0.870021
847 *2:481 *2:495 1.4
848 *2:480 *803:CK 1.4
849 *2:478 *2:493 1.61575
850 *2:478 *2:492 0.745732
851 *2:477 *2:491 1.36711
852 *2:477 *2:490 1.4
853 *2:476 *2:489 1.4
854 *2:474 *2:488 1.4
855 *2:473 *2:487 2.48575
856 *2:472 *2:486 1.4
857 *2:470 *824:CK 1.4
858 *2:469 *2:484 1.4
859 *2:468 *2:483 1.4
860 *2:468 *2:482 2.48577
861 *2:467 *2:481 0.124288
862 *2:467 *2:480 1.4
863 *2:466 *794:CK 1.4
864 *2:463 *2:478 1.4
865 *2:462 *2:477 0.745696
866 *2:462 *2:476 0.124283
867 *2:461 *864:CK 1.4
868 *2:459 *2:474 0.497155
869 *2:458 *2:473 1.4
870 *2:457 *2:472 0.745696
871 *2:456 *848:CK 1.4
872 *2:455 *2:470 0.124283
873 *2:454 *2:469 0.497155
874 *2:454 *2:468 1.61575
875 *2:453 *2:467 0.621441
876 *2:453 *2:466 1.4
877 *2:452 *914:CK 1.4
878 *2:450 *880:CK 1.4
879 *2:450 *2:463 0.124283
880 *2:449 *2:462 1.4
881 *2:448 *2:461 0.124283
882 *2:445 *1237:CK 1.4
883 *2:444 *2:459 1.4
884 *2:443 *2:458 1.24289
885 *2:442 *2:457 1.4
886 *2:441 *2:456 0.124283
887 *2:440 *2:455 1.4
888 *2:438 *2:454 1.4
889 *2:437 *2:453 0.372865
890 *2:436 *2:452 1.4
891 *2:435 *865:CK 1.4
892 *2:435 *2:450 2.23709
893 *2:434 *2:449 0.497155
894 *2:434 *2:448 1.4
895 *2:433 *849:CK 1.4
896 *2:431 *758:CK 1.4
897 *2:430 *2:445 0.124288
898 *2:429 *2:444 0.248575
899 *2:429 *2:443 1.4
900 *2:428 *2:442 0.745729
901 *2:428 *2:441 1.4
902 *2:427 *2:440 0.745729
903 *2:426 *916:CK 1.4
904 *2:426 *2:438 1.49146
905 *2:425 *2:437 1.4
906 *2:424 *2:436 0.124288
907 *2:423 *2:435 1.4
908 *2:422 *2:434 1.24289
909 *2:421 *2:433 1.4
910 *2:420 *759:CK 1.4
911 *2:419 *2:431 1.4
912 *2:418 *2:430 1.4
913 *2:417 *2:429 2.11289
914 *2:416 *2:428 0.248576
915 *2:414 *2:427 1.4
916 *2:414 *2:426 2.36148
917 *2:413 *2:425 1.36711
918 *2:413 *2:424 1.4
919 *2:412 *2:423 1.61575
920 *2:411 *2:422 1.4
921 *2:410 *2:421 0.124289
922 *2:409 *2:420 1.4
923 *2:408 *2:419 0.497155
924 *2:407 *2:418 2.98293
925 *2:407 *2:417 1.4
926 *2:406 *2:416 1.4
927 *2:405 *779:CK 1.4
928 *2:405 *2:414 0.745696
929 *2:404 *2:413 1.86424
930 *2:403 *2:412 1.4
931 *2:402 *2:411 1.49139
932 *2:402 *2:410 1.4
933 *2:401 *2:409 0.870021
934 *2:400 *2:408 1.4
935 *2:399 *2:407 0.248577
936 *2:398 *2:406 1.11854
937 *2:397 *2:405 0.372848
938 *2:396 *2:404 1.4
939 *2:394 *2:403 1.36711
940 *2:393 *2:402 2.23709
941 *2:393 *2:401 1.4
942 *2:391 *2:400 0.124288
943 *2:391 *2:399 1.4
944 *2:390 *2:398 1.4
945 *2:389 *2:397 1.4
946 *2:389 *2:396 0.124288
947 *2:388 *908:CK 1.4
948 *2:387 *2:394 1.4
949 *2:386 *2:393 0.869979
950 *2:384 *863:CK 1.4
951 *2:383 *2:391 2.11289
952 *2:381 *2:390 0.372865
953 *2:381 *2:389 3.23149
954 *2:380 *2:388 1.4
955 *2:379 *2:387 0.248577
956 *2:379 *2:386 1.4
957 *2:378 *834:CK 1.4
958 *2:377 *2:384 1.4
959 *2:376 *2:383 1.4
960 *2:375 *788:CK 1.4
961 *2:374 *2:381 1.4
962 *2:373 *2:380 0.124288
963 *2:372 *2:379 0.870021
964 *2:372 *2:378 1.4
965 *2:371 *2:377 2.36149
966 *2:371 *2:376 0.124289
967 *2:370 *2:375 1.4
968 *2:368 *2:374 0.372848
969 *2:368 *2:373 1.4
970 *2:367 *2:372 1.61575
971 *2:366 *2:371 1.4
972 *2:365 *2:370 0.497155
973 *2:363 *893:CK 1.4
974 *2:362 *2:368 0.994264
975 *2:361 *2:367 1.4
976 *2:359 *2:366 0.870014
977 *2:359 *2:365 1.4
978 *2:358 *773:CK 1.4
979 *2:357 *2:363 0.124286
980 *2:356 *2:362 1.4
981 *2:354 *2:361 1.36711
982 *2:354 *1225:CK 1.4
983 *2:353 *2:359 1.61575
984 *2:352 *2:358 0.248578
985 *2:351 *2:357 1.4
986 *2:351 *2:356 1.1186
987 *2:350 *792:CK 1.4
988 *2:348 *2:354 0.869979
989 *2:346 *2:353 1.4
990 *2:345 *2:352 1.4
991 *2:344 *2:351 0.99431
992 *2:343 *2:350 1.4
993 *2:342 *1252:CK 1.4
994 *2:341 *2:348 1.4
995 *2:340 *730:CK 1.4
996 *2:339 *2:346 0.497131
997 *2:339 *2:345 1.11855
998 *2:338 *2:344 1.4
999 *2:336 *2:343 0.497155
1000 *2:335 *2:342 1.4
1001 *2:334 *2:341 0.124289
1002 *2:334 *2:340 1.4
1003 *2:333 *2:339 1.4
1004 *2:331 *2:338 2.11291
1005 *2:331 *743:CK 1.4
1006 *2:330 *2:336 1.4
1007 *2:328 *2:335 0.124289
1008 *2:326 *2:334 3.60426
1009 *2:325 *2:333 0.621444
1010 *2:325 *1251:CK 1.4
1011 *2:324 *2:331 0.124289
1012 *2:322 *2:330 2.2372
1013 *2:322 *912:CK 1.4
1014 *2:321 *2:328 1.4
1015 *2:320 *1239:CK 1.4
1016 *2:320 *2:326 1.4
1017 *2:319 *2:325 0.124289
1018 *2:318 *2:324 1.4
1019 *2:317 *897:CK 1.4
1020 *2:316 *2:322 0.621444
1021 *2:315 *2:321 3.60437
1022 *2:311 *2:320 0.621444
1023 *2:310 *2:319 1.4
1024 *2:310 *2:318 3.3557
1025 *2:309 *2:317 0.248578
1026 *2:308 *2:316 1.4
1027 *2:307 *2:315 1.4
1028 *2:306 *1238:CK 1.4
1029 *2:305 *1253:CK 1.4
1030 *2:304 *745:CK 1.4
1031 *2:303 *2:311 1.4
1032 *2:302 *2:310 0.745697
1033 *2:301 *2:309 1.4
1034 *2:301 *2:308 0.99431
1035 *2:300 *2:307 0.497131
1036 *2:300 *2:306 1.4
1037 *2:299 *2:305 1.4
1038 *2:298 *2:304 1.4
1039 *2:297 *2:303 1.73996
1040 *2:296 *2:302 1.4
1041 *2:295 *2:301 0.99431
1042 *2:294 *2:300 2.73422
1043 *2:294 *2:299 0.621414
1044 *2:293 *2:298 0.621414
1045 *2:292 *2:297 1.4
1046 *2:291 *2:296 1.49146
1047 *2:289 *2:295 1.4
1048 *2:288 *2:294 1.4
1049 *2:287 *2:293 1.4
1050 *2:287 *2:292 0.248578
1051 *2:284 *2:291 1.4
1052 *2:283 *793:CK 1.4
1053 *2:281 *2:289 1.61575
1054 *2:280 *2:288 0.745732
1055 *2:280 *2:287 1.49146
1056 *2:279 *838:CK 1.4
1057 *2:278 *1256:CK 1.4
1058 *2:277 *2:284 0.497131
1059 *2:276 *2:283 1.36718
1060 *2:275 *808:CK 1.4
1061 *2:274 *2:281 1.4
1062 *2:273 *2:280 1.4
1063 *2:272 *2:279 0.124289
1064 *2:271 *2:278 0.248578
1065 *2:271 *2:277 1.4
1066 *2:270 *2:276 1.4
1067 *2:269 *2:275 1.4
1068 *2:269 *2:274 0.870021
1069 *2:268 *2:273 3.10707
1070 *2:268 *2:272 1.4
1071 *2:267 *2:271 0.497155
1072 *2:266 *2:270 0.124283
1073 *2:266 *2:269 1.36715
1074 *2:264 *2:268 0.86998
1075 *2:264 *2:267 1.4
1076 *2:262 *2:266 1.4
1077 *2:261 *778:CK 1.4
1078 *2:260 *2:264 0.124283
1079 *2:259 *853:CK 1.4
1080 *2:258 *2:262 0.124289
1081 *2:258 *2:261 0.745732
1082 *2:257 *2:260 1.4
1083 *2:256 *2:259 0.124289
1084 *2:255 *2:258 1.4
1085 *2:253 *2:257 1.61575
1086 *2:252 *2:256 1.4
1087 *2:252 *2:255 1.98853
1088 *2:251 *868:CK 1.4
1089 *2:249 *2:253 1.4
1090 *2:249 *2:252 0.497131
1091 *2:248 *2:251 1.4
1092 *2:247 *1242:CK 1.4
1093 *2:246 *2:249 0.124283
1094 *2:245 *2:248 0.248566
1095 *2:244 *2:247 0.124289
1096 *2:244 *2:246 1.4
1097 *2:243 *2:245 1.4
1098 *2:241 *2:244 2.73435
1099 *2:241 *2:243 0.248578
1100 *2:240 *1258:CK 1.4
1101 *2:239 *2:241 1.4
1102 *2:238 *2:240 0.124289
1103 *2:237 *2:239 1.11855
1104 *2:236 *2:238 1.4
1105 *2:234 *2:237 1.4
1106 *2:233 *2:236 1.73996
1107 *2:232 *1244:CK 1.4
1108 *2:230 *2:234 0.124289
1109 *2:230 *2:233 1.4
1110 *2:228 *2:232 1.4
1111 *2:227 *733:CK 1.4
1112 *2:226 *2:230 1.49146
1113 *2:226 *1228:CK 1.4
1114 *2:225 *2:228 0.248566
1115 *2:224 *2:227 1.4
1116 *2:223 *2:226 0.870021
1117 *2:223 *2:225 1.4
1118 *2:222 *2:224 0.124283
1119 *2:221 *2:223 1.36711
1120 *2:221 *2:222 1.4
1121 *2:220 *2:221 0.372848
1122 *2:219 *2:220 1.4
1123 *2:217 *2:219 0.994263
1124 *2:215 *1254:CK 1.4
1125 *2:214 *2:217 1.4
1126 *2:213 *840:CK 1.4
1127 *2:209 *2:215 0.124289
1128 *2:208 *2:214 0.248565
1129 *2:208 *2:213 0.248565
1130 *2:207 *761:CK 1.4
1131 *2:206 *866:CK 1.4
1132 *2:205 *731:CK 1.4
1133 *2:204 *2:209 1.4
1134 *2:203 *2:208 1.4
1135 *2:202 *2:207 1.4
1136 *2:200 *2:206 1.4
1137 *2:199 *2:205 1.4
1138 *2:198 *2:204 0.497131
1139 *2:197 *2:203 1.86424
1140 *2:196 *2:202 0.124283
1141 *2:195 *896:CK 1.4
1142 *2:194 *2:200 0.497132
1143 *2:194 *2:199 2.85851
1144 *2:193 *2:198 1.4
1145 *2:191 *2:197 1.4
1146 *2:190 *2:196 1.4
1147 *2:189 *2:195 1.4
1148 *2:188 *2:194 1.4
1149 *2:187 *2:193 0.745732
1150 *2:187 *1226:CK 1.4
1151 *2:185 *2:191 0.248565
1152 *2:185 *2:190 1.36711
1153 *2:184 *2:189 0.497155
1154 *2:182 *2:188 0.870014
1155 *2:181 *2:187 2.23709
1156 *2:180 *735:CK 1.4
1157 *2:179 *2:185 1.4
1158 *2:177 *2:184 1.4
1159 *2:176 *835:CK 1.4
1160 *2:175 *2:182 1.4
1161 *2:174 *2:181 1.4
1162 *2:173 *2:180 1.4
1163 *2:173 *2:179 1.49139
1164 *2:172 *911:CK 1.4
1165 *2:171 *2:177 1.36716
1166 *2:170 *2:176 1.4
1167 *2:170 *2:175 1.11855
1168 *2:167 *2:174 0.124283
1169 *2:167 *2:173 0.621414
1170 *2:166 *2:172 1.4
1171 *2:165 *2:171 1.4
1172 *2:165 *2:170 3.60421
1173 *2:164 *791:CK 1.4
1174 *2:163 *790:CK 1.4
1175 *2:159 *2:167 1.4
1176 *2:158 *2:166 0.248566
1177 *2:158 *2:165 0.124283
1178 *2:157 *2:164 1.4
1179 *2:156 *2:163 0.870014
1180 *2:156 *746:CK 1.4
1181 *2:155 *881:CK 1.4
1182 *2:154 *836:CK 1.4
1183 *2:153 *2:159 1.49139
1184 *2:152 *2:158 1.4
1185 *2:151 *2:157 0.372849
1186 *2:150 *2:156 1.4
1187 *2:149 *2:155 1.4
1188 *2:148 *2:154 0.124283
1189 *2:147 *2:153 1.4
1190 *2:145 *2:152 0.870014
1191 *2:145 *2:151 1.4
1192 *2:144 *2:150 0.372849
1193 *2:143 *2:149 0.994265
1194 *2:142 *2:148 1.4
1195 *2:142 *2:147 1.11855
1196 *2:140 *776:CK 1.4
1197 *2:139 *2:145 2.23718
1198 *2:139 *2:144 1.4
1199 *2:138 *2:143 1.4
1200 *2:137 *2:142 1.24283
1201 *2:136 *805:CK 1.4
1202 *2:135 *2:140 1.4
1203 *2:134 *2:139 2.23718
1204 *2:133 *2:138 0.870014
1205 *2:132 *2:137 1.4
1206 *2:131 *2:136 0.124288
1207 *2:130 *2:135 0.248566
1208 *2:130 *2:134 1.4
1209 *2:129 *2:133 1.4
1210 *2:128 *2:132 2.23718
1211 *2:127 *2:131 1.4
1212 *2:126 *2:130 0.994265
1213 *2:126 *2:129 0.497132
1214 *2:125 *2:128 1.4
1215 *2:125 *2:127 0.248566
1216 *2:124 *2:126 1.4
1217 *2:122 *2:125 1.11855
1218 *2:121 *2:124 1.36717
1219 *2:121 *775:CK 1.4
1220 *2:119 *2:122 1.4
1221 *2:117 *2:121 1.4
1222 *2:116 *760:CK 1.4
1223 *2:115 *2:119 0.745727
1224 *2:115 *806:CK 1.4
1225 *2:114 *2:117 3.35564
1226 *2:114 *2:116 1.4
1227 *2:113 *2:115 1.36717
1228 *2:112 *2:114 2.85851
1229 *2:112 *2:113 1.4
1230 *2:111 *2:112 0.621415
1231 *2:109 *2:111 1.4
1232 *2:109 *820:CK 1.4
1233 *2:107 *2:109 0.248576
1234 *2:106 *765:CK 1.4
1235 *2:105 *2:107 1.4
1236 *2:104 *2:106 1.4
1237 *2:103 *2:105 3.35564
1238 *2:101 *2:104 0.124283
1239 *2:100 *2:103 1.4
1240 *2:99 *821:CK 1.4
1241 *2:97 *2:101 1.4
1242 *2:97 *2:100 0.248565
1243 *2:96 *2:99 1.4
1244 *2:95 *810:CK 1.4
1245 *2:95 *2:97 1.36711
1246 *2:94 *2:96 0.621414
1247 *2:94 *2:95 1.4
1248 *2:92 *2:94 0.86998
1249 *2:91 *750:CK 1.4
1250 *2:90 *2:92 1.4
1251 *2:89 *2:91 0.248565
1252 *2:89 *2:90 0.621413
1253 *2:88 *2:89 1.4
1254 *2:87 *2:88 3.47992
1255 *2:83 *2:87 1.4
1256 *2:81 *915:CK 1.4
1257 *2:80 *748:CK 1.4
1258 *2:79 *763:CK 1.4
1259 *2:79 *2:83 0.248565
1260 *2:78 *825:CK 1.4
1261 *2:76 *2:81 1.4
1262 *2:73 *2:80 1.4
1263 *2:72 *2:79 1.36711
1264 *2:71 *2:78 0.124283
1265 *2:70 *823:CK 1.4
1266 *2:69 *2:76 0.497155
1267 *2:68 *855:CK 1.4
1268 *2:67 *900:CK 1.4
1269 *2:66 *2:73 0.372849
1270 *2:66 *2:72 1.4
1271 *2:65 *2:71 1.4
1272 *2:64 *2:70 0.124283
1273 *2:63 *2:69 1.4
1274 *2:61 *2:68 1.4
1275 *2:60 *2:67 1.4
1276 *2:59 *2:66 2.98279
1277 *2:57 *2:65 1.11855
1278 *2:57 *2:64 1.4
1279 *2:56 *2:63 0.870021
1280 *2:56 *1230:CK 1.4
1281 *2:55 *2:61 0.124289
1282 *2:54 *2:60 0.621444
1283 *2:52 *2:59 1.4
1284 *2:52 *898:CK 1.4
1285 *2:51 *2:57 0.124283
1286 *2:50 *2:56 1.36717
1287 *2:50 *2:55 1.4
1288 *2:48 *2:54 1.4
1289 *2:48 *858:CK 1.4
1290 *2:46 *2:52 2.23709
1291 *2:45 *2:51 1.4
1292 *2:44 *2:50 0.870015
1293 *2:44 *885:CK 1.4
1294 *2:43 *2:48 2.23718
1295 *2:43 *843:CK 1.4
1296 *2:42 *2:46 1.4
1297 *2:41 *2:45 1.49139
1298 *2:39 *2:44 1.4
1299 *2:38 *2:43 0.124288
1300 *2:37 *2:42 0.124283
1301 *2:37 *2:41 1.4
1302 *2:36 *883:CK 1.4
1303 *2:34 *2:39 2.85864
1304 *2:33 *2:38 1.4
1305 *2:32 *2:37 0.497132
1306 *2:32 *2:36 1.4
1307 *2:31 *913:CK 1.4
1308 *2:30 *2:34 1.4
1309 *2:29 *2:33 1.1186
1310 *2:28 *2:32 1.36714
1311 *2:28 *2:31 1.4
1312 *2:27 *2:30 0.124288
1313 *2:27 *2:29 1.4
1314 *2:25 *2:28 3.3558
1315 *2:23 *2:27 1.24288
1316 *2:23 *870:CK 1.4
1317 *2:22 *2:25 1.4
1318 *2:22 *903:CK 1.4
1319 *2:21 *2:23 2.98291
1320 *2:21 *2:22 0.124288
1321 *2:20 *2:21 1.4
1322 *2:19 *2:20 0.99431
1323 *2:18 *2:19 1.4
1324 *2:16 *2:18 1.49145
1325 *2:16 *780:CK 1.4
1326 *2:14 *2:16 0.124288
1327 *2:13 *918:CK 1.4
1328 *2:12 *2:14 1.4
1329 *2:11 *2:13 1.4
1330 *2:10 *2:12 0.621444
1331 *2:8 *2:11 0.124289
1332 *2:7 *2:10 1.4
1333 *2:6 *902:CK 1.4
1334 *2:5 *2:8 1.4
1335 *2:5 *2:7 0.124288
1336 *2:4 *2:6 1.36717
1337 *2:4 *2:5 2.23718
1338 *2:3 *2:4 1.4
1339 *2:2 *2:3 0.124289
1340 *2:1 *2:2 1.4
1341 *795:CK *2:1 1.4
*END

*D_NET *3 0.0249808

*CONN
*I *1361:A0 I *C 94.395 10.875 *L 0.00268 *D OAI31X1
*I *1377:AN I *C 97.585 13.195 *L 0.0018 *D NAND4BXL
*I *1380:B I *C 99.905 13.195 *L 0.00272 *D NOR3BX1
*I *1430:AN I *C 97.005 18.125 *L 0.00178 *D NAND2BX1
*I *1363:A I *C 97.295 16.095 *L 0.00162 *D NOR2XL
*I *1360:B0 I *C 100.775 10.875 *L 0.00175 *D AO21X1
*I *1427:A I *C 92.075 21.315 *L 0.00162 *D NOR2XL
*I *952:A I *C 85.115 31.755 *L 0.00162 *D NOR2XL
*I *1393:B I *C 74.385 28.565 *L 0.0028 *D NOR2BX1
*I *1337:A I *C 23.635 28.565 *L 0.00273 *D CLKINVX1
*I *1392:A I *C 18.995 31.755 *L 0.00162 *D NOR2XL
*I *1339:AN I *C 16.965 23.345 *L 0.00178 *D NAND2BX1
*I *1341:AN I *C 21.895 23.345 *L 0.00178 *D NAND2BX1
*I *1194:A I *C 18.125 31.755 *L 0.00162 *D NOR2XL
*P *3 I *C 21.285 0 *L 0

*CAP
1 *3:1 2.24446e-05
2 *3:2 2.24446e-05
3 *3:3 8.73651e-05
4 *3:4 8.73651e-05
5 *3:5 4.48891e-05
6 *3:6 4.48891e-05
7 *3:7 0.000152889
8 *3:8 0.000152889
9 *3:9 0.000112223
10 *3:10 0.000134667
11 *3:11 2.24446e-05
12 *3:13 0.000218413
13 *3:14 0.00017473
14 *3:15 4.36826e-05
15 *3:16 2.24446e-05
16 *3:17 0.000202001
17 *3:18 0.000179557
18 *3:19 0.000359113
19 *3:21 0.000157112
20 *3:22 0.000404002
21 *3:23 2.18413e-05
22 *3:24 6.55238e-05
23 *3:25 0.00024689
24 *3:27 2.18413e-05
25 *3:28 6.55238e-05
26 *3:29 0.000371302
27 *3:31 2.24446e-05
28 *3:32 0.000720762
29 *3:34 2.24446e-05
30 *3:36 0.000349461
31 *3:39 0.000559619
32 *3:40 0.000559619
33 *3:41 0.000190541
34 *3:42 0.00112337
35 *3:43 0.000244955
36 *3:44 0.00582333
37 *3:45 0.000244955
38 *3:47 0.0051038
39 *3:51 0.000213293
40 *3:53 0.000490741
41 *3:54 0.000117197
42 *3:55 0.000373544
43 *3:56 0.000165895
44 *3:57 4.35373e-05
45 *3:58 0.000213293
46 *3:59 0.000304761
47 *3:60 0.000140636
48 *3:61 4.73985e-05
49 *3:62 2.0507e-05
50 *3:63 0.000261224
51 *3:64 0.000140636
52 *3:65 0.000140636
53 *3:66 0.00166107
54 *3:67 2.0507e-05
55 *3:69 0.000140636
56 *3:70 0.000108843
57 *3:71 0.00164056
58 *3:72 2.0507e-05
59 *3:73 2.36992e-05
60 *3:74 0.000108843
61 *3:75 6.5306e-05
62 *3:77 2.36992e-05
63 *3:79 6.5306e-05
64 *3:82 1.02535e-05
65 *3:84 1.23749e-05
66 *3 2.12141e-06

*RES
1 *3:84 *3 0.0128569
2 *3:82 *3:84 0.0621417
3 *3:80 *1194:A 1.4
4 *3:79 *3:82 1.4
5 *3:78 *1341:AN 1.4
6 *3:77 *3:80 1.4
7 *3:75 *3:79 0.372866
8 *3:74 *3:78 1.4
9 *3:73 *3:77 0.124289
10 *3:72 *1339:AN 1.4
11 *3:71 *3:75 1.4
12 *3:70 *3:74 0.621444
13 *3:69 *3:73 1.4
14 *3:67 *3:72 0.124283
15 *3:66 *3:71 9.94267
16 *3:66 *3:70 1.4
17 *3:65 *3:69 0.745696
18 *3:64 *1392:A 1.4
19 *3:63 *3:67 1.4
20 *3:62 *3:66 0.124283
21 *3:61 *3:65 1.4
22 *3:60 *3:64 0.745696
23 *3:59 *3:63 1.49146
24 *3:59 *3:62 1.4
25 *3:58 *3:61 0.248577
26 *3:58 *3:60 1.4
27 *3:57 *3:59 0.248578
28 *3:56 *3:58 0.870021
29 *3:55 *3:57 1.4
30 *3:54 *3:56 1.4
31 *3:53 *3:55 2.11281
32 *3:53 *3:54 0.621413
33 *3:51 *3:53 1.4
34 *3:50 *1337:A 1.4
35 *3:47 *3:51 1.1186
36 *3:47 *3:50 1.4
37 *3:46 *1393:B 1.4
38 *3:45 *952:A 1.4
39 *3:44 *3:47 21.7505
40 *3:44 *3:46 1.4
41 *3:43 *3:45 1.36717
42 *3:42 *3:44 4.59853
43 *3:42 *3:43 1.4
44 *3:41 *3:42 0.994261
45 *3:40 *3:41 1.4
46 *3:39 *3:40 3.10721
47 *3:36 *3:39 1.4
48 *3:35 *1427:A 1.4
49 *3:34 *1360:B0 1.4
50 *3:32 *3:36 1.98853
51 *3:32 *3:35 1.4
52 *3:31 *3:34 0.124288
53 *3:30 *1363:A 1.4
54 *3:29 *3:32 2.11281
55 *3:28 *3:31 1.4
56 *3:27 *3:30 1.4
57 *3:25 *3:29 1.4
58 *3:24 *3:28 0.372849
59 *3:23 *3:27 0.124283
60 *3:22 *1430:AN 1.4
61 *3:22 *3:25 1.36717
62 *3:21 *3:24 1.4
63 *3:19 *3:23 1.4
64 *3:19 *3:22 0.870019
65 *3:18 *3:21 0.870019
66 *3:18 *1380:B 1.4
67 *3:17 *3:19 1.1186
68 *3:16 *3:18 0.124288
69 *3:15 *3:17 1.4
70 *3:14 *3:16 1.4
71 *3:13 *3:15 0.248566
72 *3:13 *3:14 0.994264
73 *3:11 *3:13 1.4
74 *3:10 *1377:AN 1.4
75 *3:10 *3:11 0.124288
76 *3:9 *3:10 0.621442
77 *3:8 *3:9 1.4
78 *3:7 *3:8 0.869981
79 *3:6 *3:7 1.4
80 *3:5 *3:6 0.248577
81 *3:4 *3:5 1.4
82 *3:3 *3:4 0.497132
83 *3:2 *3:3 1.4
84 *3:1 *3:2 0.124288
85 *1361:A0 *3:1 1.4
*END

*D_NET *4 0.00177032

*CONN
*I *1395:A I *C 6.245 5.4275 *L 0.00163 *D INVXL
*P *4 I *C 0 0 *L 0

*CAP
1 *4:1 7.07137e-07
2 *4:2 1.66177e-05
3 *4:3 1.59106e-05
4 *4:4 0.000174149
5 *4:5 0.000174149
6 *4:6 0.000389633
7 *4:7 0.000389633
8 *4:8 0.000293877
9 *4:9 0.000304761
10 *4 1.08843e-05

*RES
1 *4:9 *4 0.0621444
2 *4:8 *4:9 1.6779
3 *4:7 *4:8 1.4
4 *4:6 *4:7 2.36138
5 *4:5 *4:6 1.4
6 *4:4 *4:5 0.99431
7 *4:3 *4:4 1.4
8 *4:2 *4:3 0.0964267
9 *4:1 *4:2 0.00428563
10 *1395:A *4:1 1.4
*END

*D_NET *5 0.0150796

*CONN
*I *1420:B0 I *C 88.595 18.125 *L 0.00265 *D AOI22X1
*P *5 I *C 0 20.415 *L 0
*I *1415:B0 I *C 88.015 21.025 *L 0.00274 *D OAI221X1

*CAP
1 *5:1 0.000179557
2 *5:2 0.000179557
3 *5:3 4.36826e-05
4 *5:4 0.00731311
5 *5:5 4.48891e-05
6 *5:6 0.00727168
7 *5:7 4.48891e-05
8 *5 2.25193e-06

*RES
1 *5:7 *1415:B0 1.4
2 *5:6 *5 0.0128575
3 *5:5 *5:7 0.248577
4 *5:4 *5:6 37.7203
5 *5:4 *5:5 1.4
6 *5:3 *5:4 0.248566
7 *5:2 *5:3 1.4
8 *5:1 *5:2 0.994308
9 *1420:B0 *5:1 1.4
*END

*D_NET *6 0.0789952

*CONN
*I *1228:SE I *C 48.575 75.545 *L 0.00381 *D SDFFQX1
*I *1230:SE I *C 48.285 78.735 *L 0.00381 *D SDFFQX1
*I *1244:SE I *C 35.235 78.735 *L 0.00381 *D SDFFQX1
*I *1254:SE I *C 35.525 75.545 *L 0.00381 *D SDFFQX1
*I *1239:SE I *C 37.845 68.295 *L 0.00381 *D SDFFQX1
*I *1258:SE I *C 31.755 73.515 *L 0.00381 *D SDFFQX1
*I *1242:SE I *C 38.425 65.105 *L 0.00381 *D SDFFQX1
*I *1240:SE I *C 25.665 73.515 *L 0.00381 *D SDFFQX1
*I *1226:SE I *C 23.925 78.735 *L 0.00381 *D SDFFQX1
*I *1256:SE I *C 38.425 59.885 *L 0.00381 *D SDFFQX1
*I *1253:SE I *C 30.595 59.885 *L 0.00381 *D SDFFQX1
*I *1252:SE I *C 34.075 52.635 *L 0.00381 *D SDFFQX1
*I *1251:SE I *C 41.325 57.855 *L 0.00381 *D SDFFQX1
*I *1225:SE I *C 29.145 65.105 *L 0.00381 *D SDFFQX1
*I *1238:SE I *C 22.765 59.885 *L 0.00381 *D SDFFQX1
*I *1224:SE I *C 29.725 44.225 *L 0.00381 *D SDFFQX1
*I *1386:SE I *C 11.165 44.225 *L 0.00381 *D SDFFQX1
*I *1223:SE I *C 37.845 42.195 *L 0.00381 *D SDFFQX1
*I *1237:SE I *C 45.675 44.225 *L 0.00381 *D SDFFQX1
*I *1247:SE I *C 37.845 39.005 *L 0.00381 *D SDFFQX1
*I *1385:SE I *C 4.785 39.005 *L 0.00381 *D SDFFQX1
*I *1387:SE I *C 4.785 33.785 *L 0.00381 *D SDFFQX1
*I *1250:SE I *C 49.735 33.785 *L 0.00381 *D SDFFQX1
*I *1219:SE I *C 38.135 33.785 *L 0.00381 *D SDFFQX1
*I *1222:SE I *C 51.765 33.785 *L 0.00381 *D SDFFQX1
*I *1384:SE I *C 12.905 31.755 *L 0.00484 *D SDFFHQX4
*I *1221:SE I *C 73.515 33.785 *L 0.00381 *D SDFFQX1
*I *1248:SE I *C 4.785 23.345 *L 0.00381 *D SDFFQX1
*I *1229:SE I *C 74.965 39.005 *L 0.00381 *D SDFFQX1
*I *1233:SE I *C 34.945 28.565 *L 0.00381 *D SDFFQX1
*I *1234:SE I *C 11.745 21.315 *L 0.00381 *D SDFFQX1
*I *1220:SE I *C 19.575 21.315 *L 0.00381 *D SDFFQX1
*I *1235:SE I *C 76.705 31.755 *L 0.00381 *D SDFFQX1
*I *1236:SE I *C 40.745 26.535 *L 0.00381 *D SDFFQX1
*I *925:SE I *C 82.795 28.565 *L 0.00381 *D SDFFQX1
*I *1383:SE I *C 79.315 23.345 *L 0.00381 *D SDFFQX1
*I *1368:SE I *C 82.215 16.095 *L 0.00381 *D SDFFQX1
*I *1370:SE I *C 85.405 7.685 *L 0.00381 *D SDFFQX1
*I *1243:SE I *C 87.435 31.755 *L 0.00381 *D SDFFQX1
*I *1412:SE I *C 87.145 18.125 *L 0.00381 *D SDFFQX1
*I *1358:SE I *C 95.265 7.685 *L 0.00381 *D SDFFQX1
*I *1413:SE I *C 97.005 28.565 *L 0.00381 *D SDFFQX1
*I *1249:SE I *C 88.015 33.785 *L 0.00381 *D SDFFQX1
*I *1367:SE I *C 83.665 5.655 *L 0.00381 *D SDFFQX1
*I *1359:SE I *C 94.395 5.655 *L 0.00381 *D SDFFQX1
*I *1414:SE I *C 101.645 31.755 *L 0.00381 *D SDFFQX1
*I *1257:SE I *C 101.645 36.975 *L 0.00381 *D SDFFQX1
*I *1245:SE I *C 101.645 44.225 *L 0.00381 *D SDFFQX1
*I *1259:SE I *C 98.745 54.665 *L 0.00381 *D SDFFQX1
*I *1255:SE I *C 101.645 59.885 *L 0.00381 *D SDFFQX1
*I *1241:SE I *C 95.265 63.075 *L 0.00381 *D SDFFQX1
*I *1260:SE I *C 95.265 73.515 *L 0.00381 *D SDFFQX1
*I *1231:SE I *C 78.155 59.885 *L 0.00381 *D SDFFQX1
*I *1246:SE I *C 101.645 75.545 *L 0.00381 *D SDFFQX1
*I *1227:SE I *C 69.165 70.325 *L 0.00381 *D SDFFQX1
*I *1232:SE I *C 75.545 75.545 *L 0.00381 *D SDFFQX1
*P *6 I *C 0 0 *L 0

*CAP
1 *6:1 5.03747e-05
2 *6:2 5.03747e-05
3 *6:3 0.000226164
4 *6:4 0.000226164
5 *6:5 0.000219757
6 *6:6 0.000219757
7 *6:7 0.00114214
8 *6:8 0.000177666
9 *6:9 0.000989855
10 *6:12 2.53809e-05
11 *6:15 0.000270131
12 *6:16 0.000270131
13 *6:17 0.000254434
14 *6:18 5.6541e-05
15 *6:19 0.000197893
16 *6:20 0.000629684
17 *6:21 0.000125937
18 *6:23 0.000881557
19 *6:24 0.000125937
20 *6:25 0.000226164
21 *6:26 0.000251873
22 *6:27 0.000113082
23 *6:28 0.000226164
24 *6:29 0.000282705
25 *6:30 0.000697496
26 *6:32 0.000282705
27 *6:33 5.03747e-05
28 *6:34 0.00071697
29 *6:36 2.51873e-05
30 *6:37 5.03747e-05
31 *6:38 4.72548e-05
32 *6:39 0.000132556
33 *6:40 0.000402997
34 *6:42 4.72548e-05
35 *6:43 0.000372169
36 *6:45 0.000453372
37 *6:47 0.000372169
38 *6:48 0.000480598
39 *6:49 0.000151124
40 *6:51 0.000480598
41 *6:53 7.5562e-05
42 *6:54 0.000151124
43 *6:55 0.000254434
44 *6:56 0.000780808
45 *6:57 0.000254434
46 *6:58 0.000282705
47 *6:59 0.000629684
48 *6:60 0.000100749
49 *6:61 0.000424057
50 *6:62 5.7217e-05
51 *6:63 0.000100749
52 *6:64 7.5562e-05
53 *6:65 0.000141352
54 *6:66 0.000200259
55 *6:67 2.82705e-05
56 *6:68 7.5562e-05
57 *6:69 0.000100749
58 *6:70 0.000143042
59 *6:71 7.55622e-05
60 *6:72 2.82705e-05
61 *6:74 0.000528934
62 *6:75 0.000654873
63 *6:76 7.55622e-05
64 *6:78 0.000428185
65 *6:79 0.000550906
66 *6:80 0.000680061
67 *6:84 0.000550906
68 *6:85 0.00057217
69 *6:86 0.000503749
70 *6:87 2.36274e-05
71 *6:88 0.00215029
72 *6:89 0.000228868
73 *6:90 0.000478561
74 *6:91 2.36274e-05
75 *6:93 0.0020284
76 *6:94 0.0010013
77 *6:95 0.000228868
78 *6:99 0.000450285
79 *6:100 0.000772429
80 *6:101 0.000151125
81 *6:102 0.000314693
82 *6:104 0.000421908
83 *6:105 2.51874e-05
84 *6:106 0.000151125
85 *6:107 8.58254e-05
86 *6:108 5.03749e-05
87 *6:109 0.000843817
88 *6:110 2.51874e-05
89 *6:112 0.000402999
90 *6:113 5.03749e-05
91 *6:114 7.10977e-05
92 *6:115 0.000585984
93 *6:117 0.000402999
94 *6:119 7.10977e-05
95 *6:120 7.10977e-05
96 *6:121 0.000164075
97 *6:122 0.00114434
98 *6:124 7.10977e-05
99 *6:125 2.36992e-05
100 *6:126 0.00128738
101 *6:127 5.7217e-05
102 *6:130 0.000592481
103 *6:131 0.00227456
104 *6:133 0.000352624
105 *6:135 0.000568782
106 *6:136 0.000651884
107 *6:137 0.00218485
108 *6:141 0.000352624
109 *6:143 0.000774926
110 *6:144 0.000138189
111 *6:147 0.000543561
112 *6:149 8.70747e-05
113 *6:150 0.000138234
114 *6:151 2.76379e-05
115 *6:152 0.000336104
116 *6:154 0.000228868
117 *6:155 0.000314693
118 *6:156 8.70747e-05
119 *6:157 0.000435373
120 *6:158 0.000432134
121 *6:159 0.000336104
122 *6:160 0.000201499
123 *6:161 0.00010075
124 *6:163 0.00102313
125 *6:164 0.000432134
126 *6:165 0.000193465
127 *6:166 0.000201499
128 *6:167 0.00010075
129 *6:169 0.000587754
130 *6:170 2.0507e-05
131 *6:172 0.0003812
132 *6:173 2.86085e-05
133 *6:175 2.0507e-05
134 *6:176 2.0507e-05
135 *6:177 0.000187735
136 *6:178 0.000168052
137 *6:179 2.86085e-05
138 *6:180 2.0507e-05
139 *6:182 6.68059e-05
140 *6:183 0.000168052
141 *6:184 7.55623e-05
142 *6:186 0.000491582
143 *6:188 7.55623e-05
144 *6:189 0.000333447
145 *6:190 0.00098589
146 *6:192 0.000333447
147 *6:193 4.36826e-05
148 *6:194 0.000561114
149 *6:195 0.000222686
150 *6:196 4.36826e-05
151 *6:197 0.000262095
152 *6:198 0.000200418
153 *6:199 2.22686e-05
154 *6:201 0.000502349
155 *6:202 0.000381083
156 *6:205 0.000371302
157 *6:207 0.000476353
158 *6:208 0.000131048
159 *6:209 0.000650893
160 *6:211 9.52707e-05
161 *6:212 2.22686e-05
162 *6:213 0.000157112
163 *6:214 0.000650893
164 *6:215 0.000133612
165 *6:216 8.90746e-05
166 *6:217 0.000157112
167 *6:219 2.18413e-05
168 *6:220 0.000133612
169 *6:221 6.68059e-05
170 *6:224 0.000698921
171 *6:225 0.000690712
172 *6:226 4.76353e-05
173 *6:227 0.000720762
174 *6:228 0.000157112
175 *6:229 0.000690712
176 *6:230 4.76353e-05
177 *6:231 4.36826e-05
178 *6:232 0.000157112
179 *6:233 0.000157112
180 *6:234 0.000155881
181 *6:235 8.90746e-05
182 *6:237 0.000157112
183 *6:238 0.000152889
184 *6:239 6.68059e-05
185 *6:240 8.90746e-05
186 *6:241 8.90746e-05
187 *6:243 2.18413e-05
188 *6:244 0.000152889
189 *6:245 0.00030963
190 *6:248 2.18413e-05
191 *6:250 0.00030963
192 *6:253 8.90746e-05
193 *6:255 0.00048991
194 *6:256 7.1453e-05
195 *6:257 0.000957552
196 *6:258 7.1453e-05
197 *6:259 0.000645791
198 *6:260 7.1453e-05
199 *6:262 8.90746e-05
200 *6:263 7.1453e-05
201 *6:264 7.1453e-05
202 *6:266 0.000166724
203 *6:267 7.1453e-05
204 *6:269 0.000166724
205 *6:272 0.0007218
206 *6:274 0.00111877
207 *6:275 0.000420325
208 *6:277 2.33514e-05
209 *6:278 0.000275393
210 *6:279 0.000229494
211 *6:280 0.000275393
212 *6:281 0.000229494
213 *6:282 4.67028e-05
214 *6:284 0.000280217
215 *6:286 0.00107416
216 *6:287 0.00135624
217 *6:288 0.00102746
218 *6:290 0.00160281
219 *6:291 0.000186811
220 *6:293 2.40564e-05
221 *6:294 0.000246574
222 *6:295 0.000504887
223 *6:296 2.40564e-05
224 *6:297 0.000841973
225 *6:298 0.000504887
226 *6:300 0.000841973
227 *6:301 2.33514e-05
228 *6:302 2.73971e-05
229 *6:303 2.33514e-05
230 *6:304 0.000602736
231 *6:306 0.000433015
232 *6:307 0.000575339
233 *6:308 0.000433015
234 *6:310 2.73971e-05
235 *6:312 2.73971e-05
236 *6 1.51925e-05

*RES
1 *6:150 *6 0.0666667
2 *6:313 *1232:SE 1.4
3 *6:312 *6:313 1.4
4 *6:310 *6:312 0.124289
5 *6:309 *1227:SE 1.4
6 *6:308 *6:310 1.4
7 *6:307 *6:309 1.4
8 *6:306 *6:308 2.2372
9 *6:304 *6:307 2.61006
10 *6:304 *6:306 1.4
11 *6:303 *1246:SE 1.4
12 *6:302 *6:304 0.124289
13 *6:301 *6:303 0.124285
14 *6:300 *6:302 1.4
15 *6:298 *6:301 1.4
16 *6:297 *6:300 4.35011
17 *6:296 *1231:SE 1.4
18 *6:295 *6:298 2.73435
19 *6:294 *6:297 1.4
20 *6:293 *6:296 0.124289
21 *6:291 *6:295 1.4
22 *6:290 *6:294 1.1186
23 *6:290 *6:293 1.4
24 *6:288 *1260:SE 1.4
25 *6:288 *6:291 0.994277
26 *6:287 *6:290 7.33304
27 *6:286 *1241:SE 1.4
28 *6:286 *6:288 4.47424
29 *6:284 *6:287 1.4
30 *6:284 *6:286 1.24285
31 *6:283 *1255:SE 1.4
32 *6:282 *6:284 0.248569
33 *6:281 *6:283 1.4
34 *6:280 *6:282 1.4
35 *6:279 *6:281 1.24289
36 *6:278 *6:280 1.49146
37 *6:277 *6:279 1.4
38 *6:275 *6:278 1.4
39 *6:275 *6:277 0.124285
40 *6:274 *1259:SE 1.4
41 *6:274 *6:275 2.11284
42 *6:272 *6:274 3.97718
43 *6:270 *1245:SE 1.4
44 *6:269 *6:272 1.4
45 *6:268 *1257:SE 1.4
46 *6:267 *6:270 1.4
47 *6:266 *6:269 0.869979
48 *6:264 *6:268 1.4
49 *6:263 *6:267 0.372848
50 *6:262 *6:266 1.4
51 *6:261 *1414:SE 1.4
52 *6:260 *6:264 0.372848
53 *6:259 *6:263 1.4
54 *6:259 *6:262 0.497151
55 *6:258 *6:261 1.4
56 *6:257 *6:260 1.4
57 *6:257 *6:259 3.10719
58 *6:256 *6:258 0.372848
59 *6:255 *6:257 2.23718
60 *6:255 *6:256 1.4
61 *6:253 *6:255 0.497151
62 *6:251 *1359:SE 1.4
63 *6:250 *6:253 1.4
64 *6:249 *1367:SE 1.4
65 *6:248 *6:251 1.4
66 *6:245 *6:250 1.61567
67 *6:244 *6:249 1.4
68 *6:243 *6:248 0.124283
69 *6:241 *1249:SE 1.4
70 *6:240 *1413:SE 1.4
71 *6:239 *6:245 1.4
72 *6:238 *6:244 0.869981
73 *6:237 *6:243 1.4
74 *6:236 *1358:SE 1.4
75 *6:235 *6:241 0.497151
76 *6:234 *6:240 0.497151
77 *6:234 *6:239 0.372863
78 *6:233 *6:238 1.4
79 *6:232 *6:237 0.870019
80 *6:231 *6:236 1.4
81 *6:230 *6:235 1.4
82 *6:229 *6:234 1.4
83 *6:228 *6:233 0.870019
84 *6:227 *6:232 1.4
85 *6:227 *6:231 0.248566
86 *6:226 *6:230 0.248565
87 *6:225 *6:229 3.6042
88 *6:224 *6:228 1.4
89 *6:224 *6:227 3.85277
90 *6:221 *6:226 1.4
91 *6:220 *6:225 1.4
92 *6:219 *6:224 0.124283
93 *6:217 *1412:SE 1.4
94 *6:216 *1243:SE 1.4
95 *6:216 *6:221 0.372863
96 *6:215 *6:220 0.745727
97 *6:214 *6:219 1.4
98 *6:214 *1370:SE 1.4
99 *6:213 *6:217 0.870019
100 *6:212 *6:216 0.124288
101 *6:211 *6:215 1.4
102 *6:209 *6:214 3.60436
103 *6:208 *6:213 1.4
104 *6:207 *6:212 1.4
105 *6:207 *6:211 0.497131
106 *6:206 *1368:SE 1.4
107 *6:205 *6:209 1.4
108 *6:205 *6:208 0.745698
109 *6:202 *6:207 1.98852
110 *6:201 *6:206 1.4
111 *6:201 *6:205 1.36711
112 *6:200 *1383:SE 1.4
113 *6:199 *925:SE 1.4
114 *6:198 *6:202 1.4
115 *6:197 *6:201 1.4914
116 *6:196 *6:200 1.4
117 *6:195 *6:199 0.124288
118 *6:195 *6:198 1.11859
119 *6:194 *6:197 1.4
120 *6:193 *6:196 0.248566
121 *6:192 *6:195 1.4
122 *6:190 *6:194 3.10721
123 *6:190 *6:193 1.4
124 *6:189 *6:192 1.73996
125 *6:188 *1236:SE 1.4
126 *6:186 *6:190 2.36147
127 *6:186 *6:189 1.4
128 *6:184 *6:188 0.372863
129 *6:183 *1235:SE 1.4
130 *6:182 *6:186 0.372863
131 *6:180 *1220:SE 1.4
132 *6:179 *6:184 1.4
133 *6:178 *6:183 0.869979
134 *6:177 *6:182 1.4
135 *6:176 *1234:SE 1.4
136 *6:175 *6:180 0.124283
137 *6:173 *6:179 0.124289
138 *6:172 *6:178 1.4
139 *6:172 *6:177 0.870009
140 *6:170 *6:176 0.124283
141 *6:169 *6:175 1.4
142 *6:167 *1233:SE 1.4
143 *6:166 *6:173 1.4
144 *6:165 *6:172 0.870018
145 *6:164 *1229:SE 1.4
146 *6:163 *6:170 1.4
147 *6:163 *6:169 3.3558
148 *6:162 *1248:SE 1.4
149 *6:161 *6:167 0.497151
150 *6:160 *6:166 0.994302
151 *6:159 *6:165 1.4
152 *6:158 *6:164 2.23709
153 *6:157 *6:163 2.48577
154 *6:156 *6:162 1.4
155 *6:155 *6:161 1.4
156 *6:154 *6:160 1.4
157 *6:152 *6:159 1.73996
158 *6:151 *6:158 1.4
159 *6:150 *6:157 1.4
160 *6:149 *6:156 0.497155
161 *6:147 *6:155 1.36718
162 *6:147 *6:154 0.99431
163 *6:145 *1221:SE 1.4
164 *6:144 *6:152 1.4
165 *6:144 *6:151 0.124288
166 *6:143 *6:150 0.7457
167 *6:143 *6:149 1.4
168 *6:142 *1384:SE 1.4
169 *6:141 *6:147 1.4
170 *6:138 *1222:SE 1.4
171 *6:137 *6:145 1.4
172 *6:137 *6:144 0.497153
173 *6:136 *6:143 3.6042
174 *6:135 *6:142 1.4
175 *6:133 *6:141 1.74003
176 *6:133 *1219:SE 1.4
177 *6:132 *1250:SE 1.4
178 *6:131 *6:138 1.4
179 *6:131 *6:137 9.32162
180 *6:130 *6:136 1.4
181 *6:130 *6:135 2.98293
182 *6:129 *1387:SE 1.4
183 *6:127 *6:133 1.4
184 *6:126 *6:132 1.4
185 *6:126 *6:131 0.870021
186 *6:125 *6:130 0.124289
187 *6:124 *6:129 1.4
188 *6:123 *1385:SE 1.4
189 *6:122 *6:127 0.248577
190 *6:122 *6:126 4.72297
191 *6:121 *6:125 1.4
192 *6:120 *6:124 0.372866
193 *6:119 *6:123 1.4
194 *6:117 *6:122 1.4
195 *6:115 *6:121 0.869979
196 *6:115 *6:120 1.4
197 *6:114 *6:119 0.372866
198 *6:113 *1247:SE 1.4
199 *6:112 *6:117 1.9886
200 *6:110 *1237:SE 1.4
201 *6:109 *6:115 2.23709
202 *6:109 *6:114 1.4
203 *6:108 *6:113 0.248575
204 *6:107 *6:112 1.4
205 *6:106 *1223:SE 1.4
206 *6:105 *6:110 0.124288
207 *6:104 *6:109 2.23709
208 *6:102 *6:108 1.4
209 *6:102 *6:107 0.372866
210 *6:101 *6:106 0.745726
211 *6:100 *6:105 1.4
212 *6:99 *6:104 1.4
213 *6:98 *1386:SE 1.4
214 *6:95 *6:102 0.99431
215 *6:94 *6:101 1.4
216 *6:94 *6:100 3.3558
217 *6:93 *6:99 2.36149
218 *6:93 *6:98 1.4
219 *6:92 *1224:SE 1.4
220 *6:91 *1238:SE 1.4
221 *6:90 *6:95 1.4
222 *6:89 *6:94 0.99431
223 *6:88 *6:93 7.95448
224 *6:88 *6:92 1.4
225 *6:87 *6:91 0.124283
226 *6:86 *6:90 2.36147
227 *6:86 *6:89 1.4
228 *6:85 *6:88 2.48577
229 *6:84 *6:87 1.4
230 *6:80 *6:86 0.124288
231 *6:80 *6:85 1.4
232 *6:79 *6:84 2.73429
233 *6:78 *1225:SE 1.4
234 *6:77 *1251:SE 1.4
235 *6:76 *1252:SE 1.4
236 *6:75 *6:80 3.23148
237 *6:74 *6:79 1.4
238 *6:74 *6:78 2.11291
239 *6:72 *6:77 1.4
240 *6:71 *6:76 0.372865
241 *6:70 *6:75 1.4
242 *6:69 *6:74 0.497155
243 *6:68 *1253:SE 1.4
244 *6:67 *6:72 0.124283
245 *6:66 *6:71 1.4
246 *6:66 *6:70 0.621444
247 *6:65 *6:69 1.4
248 *6:64 *6:68 0.372866
249 *6:63 *6:67 1.4
250 *6:62 *6:66 0.248577
251 *6:61 *6:65 0.621414
252 *6:61 *6:64 1.4
253 *6:60 *6:63 0.497155
254 *6:59 *6:62 1.4
255 *6:58 *6:61 1.24283
256 *6:57 *6:60 1.4
257 *6:56 *6:59 3.10722
258 *6:56 *6:58 1.4
259 *6:55 *6:57 1.11855
260 *6:54 *6:56 0.745732
261 *6:53 *6:55 1.4
262 *6:51 *6:54 1.4
263 *6:49 *6:53 0.372866
264 *6:49 *1256:SE 1.4
265 *6:48 *6:51 2.11281
266 *6:47 *1226:SE 1.4
267 *6:45 *6:49 0.372866
268 *6:45 *6:48 1.4
269 *6:43 *6:47 1.98853
270 *6:42 *1240:SE 1.4
271 *6:40 *6:45 1.86433
272 *6:40 *1242:SE 1.4
273 *6:39 *6:43 1.4
274 *6:38 *6:42 0.248565
275 *6:37 *1258:SE 1.4
276 *6:36 *6:40 0.124289
277 *6:34 *6:39 0.745732
278 *6:34 *6:38 1.4
279 *6:33 *6:37 0.248578
280 *6:32 *6:36 1.4
281 *6:31 *1239:SE 1.4
282 *6:30 *6:34 2.60995
283 *6:30 *6:33 1.4
284 *6:29 *6:32 1.24283
285 *6:28 *6:31 1.4
286 *6:27 *6:30 0.497131
287 *6:26 *6:29 1.4
288 *6:25 *6:28 0.994263
289 *6:24 *6:27 1.4
290 *6:23 *6:26 1.24289
291 *6:23 *6:25 1.4
292 *6:21 *6:24 0.621444
293 *6:20 *6:23 3.10722
294 *6:20 *1254:SE 1.4
295 *6:19 *6:21 1.4
296 *6:18 *6:20 1.4
297 *6:17 *6:19 0.86998
298 *6:17 *6:18 0.248566
299 *6:16 *6:17 1.4
300 *6:15 *6:16 1.36717
301 *6:12 *6:15 1.4
302 *6:11 *1244:SE 1.4
303 *6:10 *1230:SE 1.4
304 *6:9 *6:12 0.124283
305 *6:9 *6:11 1.4
306 *6:8 *6:10 1.4
307 *6:7 *6:9 4.72275
308 *6:7 *6:8 0.86998
309 *6:6 *6:7 1.4
310 *6:5 *6:6 1.11859
311 *6:4 *6:5 1.4
312 *6:3 *6:4 0.994263
313 *6:2 *6:3 1.4
314 *6:1 *6:2 0.248578
315 *1228:SE *6:1 1.4
*END

*D_NET *9 0.0110253

*CONN
*I *1391:B0 I *C 6.525 36.395 *L 0.00171 *D AO22XL
*P *9 I *C 0 102.08 *L 0

*CAP
1 *9:1 2.34394e-05
2 *9:2 2.34394e-05
3 *9:3 0.000213293
4 *9:4 0.000213293
5 *9:5 0.0049872
6 *9:6 0.0049872
7 *9:7 0.000278425
8 *9:8 0.000288737
9 *9 1.0312e-05

*RES
1 *9:8 *9 0.0621415
2 *9:7 *9:8 1.67782
3 *9:6 *9:7 1.4
4 *9:5 *9:6 27.964
5 *9:4 *9:5 1.4
6 *9:3 *9:4 1.1186
7 *9:2 *9:3 1.4
8 *9:1 *9:2 0.124283
9 *1391:B0 *9:1 1.4
*END

*D_NET *10 0.00802313

*CONN
*I *1390:B0 I *C 10.005 41.615 *L 0.00171 *D AO22XL
*P *10 I *C 0 81.665 *L 0

*CAP
1 *10:2 0.000687278
2 *10:3 0.000687278
3 *10:4 0.00320872
4 *10:5 0.00320872
5 *10:6 0.000113433
6 *10:7 0.000115566
7 *10 2.13353e-06

*RES
1 *10:7 *10 0.0128569
2 *10:6 *10:7 0.683557
3 *10:5 *10:6 1.4
4 *10:4 *10:5 17.1511
5 *10:3 *10:4 1.4
6 *10:2 *10:3 3.60437
7 *10:1 *10:2 1.4
8 *1390:B0 *10:1 1.4
*END

*D_NET *11 0.00421291

*CONN
*I *1388:B0 I *C 5.655 41.615 *L 0.00171 *D AO22XL
*P *11 I *C 0 61.25 *L 0

*CAP
1 *11:1 2.34394e-05
2 *11:2 2.34394e-05
3 *11:3 0.000331789
4 *11:4 0.000331789
5 *11:5 0.00162324
6 *11:6 0.00162324
7 *11:7 0.00012151
8 *11:8 0.000127985
9 *11 6.47543e-06

*RES
1 *11:8 *11 0.0364295
2 *11:7 *11:8 0.683588
3 *11:6 *11:7 1.4
4 *11:5 *11:6 8.5755
5 *11:4 *11:5 1.4
6 *11:3 *11:4 1.74004
7 *11:2 *11:3 1.4
8 *11:1 *11:2 0.124283
9 *1388:B0 *11:1 1.4
*END

*D_NET *12 0.00268411

*CONN
*I *1389:B0 I *C 12.035 36.395 *L 0.00171 *D AO22XL
*P *12 I *C 0 40.83 *L 0

*CAP
1 *12:2 0.000829473
2 *12:3 0.000829473
3 *12:4 0.00035159
4 *12:5 0.00035159
5 *12:6 0.000154045
6 *12:7 0.000160991
7 *12 6.94633e-06

*RES
1 *12:7 *12 0.0364295
2 *12:6 *12:7 0.807877
3 *12:5 *12:6 1.4
4 *12:4 *12:5 1.86424
5 *12:3 *12:4 1.4
6 *12:2 *12:3 4.35011
7 *12:1 *12:2 1.4
8 *1389:B0 *12:1 1.4
*END

*D_NET *13 0.003729

*CONN
*P *13 O *C 85.145 0 *L 0
*I *1359:Q O *C 101.355 5.945 *L 0 *D SDFFQX1
*I *1358:SI I *C 95.555 7.975 *L 0.00172 *D SDFFQX1

*CAP
1 *13 2.32185e-06
2 *13:1 0.000125767
3 *13:2 0.000123445
4 *13:3 0.000808127
5 *13:4 0.000808127
6 *13:5 0.000336669
7 *13:6 0.000336669
8 *13:7 0.000436826
9 *13:8 0.000414984
10 *13:9 2.18413e-05
11 *13:11 0.000157112
12 *13:13 0.000157112

*RES
1 *13:13 *1358:SI 1.4
2 *13:11 *13:13 0.870019
3 *13:10 *1359:Q 1.4
4 *13:9 *13:11 1.4
5 *13:8 *13:10 1.4
6 *13:7 *13:9 0.124283
7 *13:7 *13:8 2.36138
8 *13:6 *13:7 1.4
9 *13:5 *13:6 1.86433
10 *13:4 *13:5 1.4
11 *13:3 *13:4 4.59847
12 *13:2 *13:3 1.4
13 *13:1 *13:2 0.683586
14 *13 *13:1 0.0128574
*END

*D_NET *14 0.00585472

*CONN
*P *14 O *C 106.43 0 *L 0
*I *1358:Q O *C 102.225 7.395 *L 0 *D SDFFQX1
*I *1414:SI I *C 101.355 31.465 *L 0.00172 *D SDFFQX1

*CAP
1 *14 7.82436e-06
2 *14:1 0.000109541
3 *14:2 0.000101717
4 *14:3 0.000374886
5 *14:4 0.000374886
6 *14:5 0.000426447
7 *14:6 0.00228609
8 *14:7 0.000109206
9 *14:8 0.00185964
10 *14:9 0.000109206
11 *14:10 4.76353e-05
12 *14:12 4.76353e-05

*RES
1 *14:14 *1414:SI 1.4
2 *14:12 *14:14 1.4
3 *14:11 *1358:Q 1.4
4 *14:10 *14:12 0.248565
5 *14:9 *14:11 1.4
6 *14:8 *14:10 1.4
7 *14:7 *14:9 0.621415
8 *14:6 *14:8 10.3159
9 *14:6 *14:7 1.4
10 *14:5 *14:6 2.36148
11 *14:4 *14:5 1.4
12 *14:3 *14:4 2.36139
13 *14:2 *14:3 1.4
14 *14:1 *14:2 0.807837
15 *14 *14:1 0.0621413
*END

*D_NET *15 0.00104695

*CONN
*I *1096:A0 I *C 92.075 78.445 *L 0.00264 *D AOI22X1
*I *1287:A1 I *C 92.365 75.545 *L 0.00168 *D AO22XL
*I *1246:Q O *C 94.685 75.255 *L 0 *D SDFFQX1
*P *15 O *C 0 0 *L 0

*CAP
1 *15:1 0.000184979
2 *15:2 0.000184979
3 *15:3 2.29494e-05
4 *15:4 0.000206545
5 *15:5 0.000183595
6 *15:6 4.67028e-05
7 *15:7 7.00542e-05
8 *15:8 4.67028e-05
9 *15:9 7.00542e-05
10 *1287:A1 1.51925e-05
11 *15 1.51925e-05

*RES
1 *1287:A1 *15 0.0666667
2 *15:9 *1246:Q 1.4
3 *15:8 *1287:A1 1.4
4 *15:7 *15:9 0.372854
5 *15:6 *15:8 0.248569
6 *15:5 *15:7 1.4
7 *15:4 *15:6 1.4
8 *15:4 *15:5 0.99431
9 *15:3 *15:4 0.124289
10 *15:2 *15:3 1.4
11 *15:1 *15:2 0.994276
12 *1096:A0 *15:1 1.4
*END

*D_NET *16 0.0056123

*CONN
*I *1401:A0N I *C 100.775 28.855 *L 0.00167 *D OAI2BB1XL
*I *1405:A I *C 101.065 26.245 *L 0.00173 *D OR2X1
*I *1407:A I *C 100.485 21.025 *L 0.00157 *D NAND2XL
*I *1400:A1 I *C 100.485 18.415 *L 0.00169 *D OAI211XL
*I *1411:A I *C 98.165 21.315 *L 0.00273 *D CLKINVX1
*I *1430:B I *C 96.135 18.125 *L 0.00284 *D NAND2BX1
*I *1427:B I *C 91.785 21.025 *L 0.00171 *D NOR2XL
*I *1408:A I *C 90.335 26.535 *L 0.00162 *D NOR2XL
*I *1413:Q O *C 90.045 28.275 *L 0 *D SDFFQX1
*P *16 O *C 0 0 *L 0

*CAP
1 *16:1 0.000200418
2 *16:2 0.000200418
3 *16:3 4.76353e-05
4 *16:4 2.38177e-05
5 *16:5 2.38177e-05
6 *16:7 0.00038147
7 *16:9 0.000403914
8 *16:10 0.00017473
9 *16:11 0.000224446
10 *16:12 0.00017473
11 *16:14 0.000224446
12 *16:17 2.24446e-05
13 *16:19 0.000327619
14 *16:20 0.000633397
15 *16:22 0.000305778
16 *16:24 0.000239638
17 *16:25 0.000784241
18 *16:26 0.000559795
19 *16:27 2.18413e-05
20 *16:28 0.000142906
21 *16:29 2.18413e-05
22 *16:30 0.000166724
23 *16:32 0.000133612
24 *16:33 2.38177e-05
25 *16:35 0.000133612
26 *16 1.51925e-05

*RES
1 *16:24 *16 0.0666667
2 *16:36 *1413:Q 1.4
3 *16:35 *1408:A 1.4
4 *16:33 *16:36 1.4
5 *16:32 *16:35 0.745727
6 *16:31 *1427:B 1.4
7 *16:30 *16:33 0.124283
8 *16:30 *16:32 1.4
9 *16:29 *16:31 1.4
10 *16:28 *16:30 0.745696
11 *16:27 *16:29 0.124283
12 *16:26 *16:28 1.4
13 *16:25 *16:27 1.4
14 *16:25 *16:26 3.10721
15 *16:24 *16:25 1.24288
16 *16:22 *16:24 1.4
17 *16:21 *1430:B 1.4
18 *16:20 *16:22 1.73996
19 *16:20 *16:21 1.4
20 *16:19 *16:20 1.86425
21 *16:17 *16:19 1.4
22 *16:15 *1411:A 1.4
23 *16:14 *16:17 0.124288
24 *16:14 *1400:A1 1.4
25 *16:12 *16:15 1.4
26 *16:11 *16:14 1.1186
27 *16:11 *1407:A 1.4
28 *16:10 *16:12 0.994264
29 *16:9 *16:11 0.124288
30 *16:9 *16:10 1.4
31 *16:7 *16:9 2.1129
32 *16:6 *1405:A 1.4
33 *16:5 *16:7 1.4
34 *16:4 *16:6 1.4
35 *16:3 *16:5 0.124283
36 *16:3 *16:4 0.124283
37 *16:2 *16:3 1.4
38 *16:1 *16:2 1.11859
39 *1401:A0N *16:1 1.4
*END

*D_NET *17 0.00419642

*CONN
*P *17 O *C 63.86 0 *L 0
*I *1396:Y O *C 79.025 10.295 *L 0 *D OR2X1

*CAP
1 *17 6.20461e-06
2 *17:1 0.000143801
3 *17:2 0.000137596
4 *17:3 0.00130351
5 *17:4 0.00130351
6 *17:5 0.000650893
7 *17:6 0.000650893

*RES
1 *17:6 *1396:Y 1.4
2 *17:5 *17:6 3.60436
3 *17:4 *17:5 1.4
4 *17:3 *17:4 6.4627
5 *17:2 *17:3 1.4
6 *17:1 *17:2 0.807877
7 *17 *17:1 0.0364295
*END

*D_NET *18 0.0105522

*CONN
*P *18 O *C 42.57 0 *L 0
*I *723:Y O *C 81.1375 10.585 *L 0 *D INVXL
*I *1361:A1 I *C 95.265 10.585 *L 0.00267 *D OAI31X1

*CAP
1 *18 6.20114e-06
2 *18:1 0.000122564
3 *18:2 0.000116363
4 *18:3 0.0033591
5 *18:4 0.0033591
6 *18:5 0.000583559
7 *18:6 0.000583559
8 *18:7 2.18413e-05
9 *18:8 2.18413e-05
10 *18:9 0.000112223
11 *18:10 0.000118801
12 *18:11 6.57858e-06
13 *18:12 0.00107022
14 *18:14 0.00107022

*RES
1 *18:15 *1361:A1 1.4
2 *18:14 *18:15 1.4
3 *18:12 *18:14 6.08987
4 *18:11 *723:Y 1.4
5 *18:10 *18:12 1.4
6 *18:10 *18:11 0.0364294
7 *18:9 *18:10 0.621442
8 *18:8 *18:9 1.4
9 *18:7 *18:8 0.124283
10 *18:6 *18:7 1.4
11 *18:5 *18:6 3.2315
12 *18:4 *18:5 1.4
13 *18:3 *18:4 16.6539
14 *18:2 *18:3 1.4
15 *18:1 *18:2 0.683585
16 *18 *18:1 0.0364293
*END

*D_NET *19 0.00139876

*CONN
*P *19 O *C 106.43 87.495 *L 0
*I *1394:Y O *C 101.728 83.665 *L 0 *D INVXL

*CAP
1 *19 3.23604e-06
2 *19:1 1.10565e-05
3 *19:2 7.82044e-06
4 *19:3 1.56174e-05
5 *19:4 1.56174e-05
6 *19:5 0.000367018
7 *19:6 0.000367018
8 *19:7 0.000236234
9 *19:8 0.000236234
10 *19:9 6.36846e-05
11 *19:10 6.36846e-05
12 *19:11 5.77009e-06
13 *19:12 5.77009e-06

*RES
1 *19:12 *1394:Y 1.4
2 *19:11 *19:12 0.0364277
3 *19:10 *19:11 1.4
4 *19:9 *19:10 0.372866
5 *19:8 *19:9 1.4
6 *19:7 *19:8 1.49139
7 *19:6 *19:7 1.4
8 *19:5 *19:6 2.36145
9 *19:4 *19:5 1.4
10 *19:3 *19:4 0.124286
11 *19:2 *19:3 1.4
12 *19:1 *19:2 0.0621413
13 *19 *19:1 0.0257137
*END

*D_NET *20 0.0102572

*CONN
*I *1394:A I *C 101.365 83.7275 *L 0.00163 *D INVXL
*P *20 O *C 106.43 72.91 *L 0
*I *1399:Y O *C 101.355 23.925 *L 0 *D NOR2XL

*CAP
1 *20:1 6.78834e-07
2 *20:2 5.09126e-06
3 *20:3 4.41242e-06
4 *20:4 4.24564e-05
5 *20:5 4.24564e-05
6 *20:6 0.000796196
7 *20:7 0.000796196
8 *20:8 0.00039768
9 *20:9 0.000399045
10 *20:10 0.00384214
11 *20 1.36469e-06
12 *20:12 0.00384214
13 *20:13 4.36826e-05
14 *20:14 4.36826e-05

*RES
1 *20:15 *1399:Y 1.4
2 *20:14 *20:15 1.4
3 *20:13 *20:14 0.248566
4 *20:12 *20:13 1.4
5 *20:10 *20:12 21.0044
6 *20:9 *20 0.0107143
7 *20:8 *20:10 1.4
8 *20:8 *20:9 2.42361
9 *20:7 *20:8 1.4
10 *20:6 *20:7 4.59849
11 *20:5 *20:6 1.4
12 *20:4 *20:5 0.248578
13 *20:3 *20:4 1.4
14 *20:2 *20:3 0.0278565
15 *20:1 *20:2 0.00428561
16 *1394:A *20:1 1.4
*END

*D_NET *21 0.00261081

*CONN
*P *21 O *C 106.43 43.745 *L 0
*I *1401:Y O *C 101.615 28.48 *L 0 *D OAI2BB1XL

*CAP
1 *21 5.58595e-06
2 *21:1 1.36856e-05
3 *21:2 8.09963e-06
4 *21:3 0.000951325
5 *21:4 0.000951325
6 *21:5 0.000331563
7 *21:6 0.000331563
8 *21:7 6.52702e-06
9 *21:8 8.83067e-06
10 *21:9 2.30365e-06

*RES
1 *21:9 *1401:Y 1.4
2 *21:8 *21:9 0.0128574
3 *21:7 *21:8 0.0364292
4 *21:6 *21:7 1.4
5 *21:5 *21:6 1.98856
6 *21:4 *21:5 1.4
7 *21:3 *21:4 6.46274
8 *21:2 *21:3 1.4
9 *21:1 *21:2 0.0621444
10 *21 *21:1 0.0428582
*END

*D_NET *22 0.00314742

*CONN
*I *1401:B0 I *C 101.065 28.855 *L 0.00173 *D OAI2BB1XL
*P *22 O *C 106.43 29.165 *L 0
*I *1405:Y O *C 101.645 25.955 *L 0 *D OR2X1
*I *1397:B I *C 101.645 16.095 *L 0.00168 *D NAND2BXL

*CAP
1 *22:1 2.22686e-05
2 *22:2 2.22686e-05
3 *22:3 0.000411116
4 *22:4 0.000388415
5 *22:5 2.38177e-05
6 *22 1.11719e-06
7 *22:7 0.000245043
8 *22:8 0.00100816
9 *22:9 6.55238e-05
10 *22:10 0.000763115
11 *22:11 6.55238e-05
12 *22:12 6.55238e-05
13 *22:14 6.55238e-05

*RES
1 *22:16 *1397:B 1.4
2 *22:14 *22:16 1.4
3 *22:13 *1405:Y 1.4
4 *22:12 *22:14 0.372849
5 *22:11 *22:13 1.4
6 *22:10 *22:12 1.4
7 *22:9 *22:11 0.372849
8 *22:8 *22:10 4.22581
9 *22:8 *22:9 1.4
10 *22:7 *22:8 1.36717
11 *22:5 *22:7 1.4
12 *22:4 *22 0.00857164
13 *22:3 *22:5 0.124283
14 *22:3 *22:4 2.29927
15 *22:2 *22:3 1.4
16 *22:1 *22:2 0.124288
17 *1401:B0 *22:1 1.4
*END

*D_NET *23 0.000826298

*CONN
*P *23 O *C 106.43 14.58 *L 0
*I *1397:Y O *C 101.935 16.385 *L 0 *D NAND2BXL

*CAP
1 *23 3.51274e-06
2 *23:1 1.13489e-05
3 *23:2 7.83612e-06
4 *23:3 4.69462e-05
5 *23:4 4.69462e-05
6 *23:5 0.00028752
7 *23:6 0.00028752
8 *23:7 6.73337e-05
9 *23:8 6.73337e-05

*RES
1 *23:8 *1397:Y 1.4
2 *23:7 *23:8 0.372865
3 *23:6 *23:7 1.4
4 *23:5 *23:6 1.86426
5 *23:4 *23:5 1.4
6 *23:3 *23:4 0.372848
7 *23:2 *23:3 1.4
8 *23:1 *23:2 0.0621429
9 *23 *23:1 0.0278571
*END

*D_NET *24 0.00363095

*CONN
*P *24 O *C 106.43 0 *L 0
*I *1400:Y O *C 100.775 18.995 *L 0 *D OAI211XL

*CAP
1 *24 7.83612e-06
2 *24:1 1.56722e-05
3 *24:2 7.83612e-06
4 *24:3 7.82436e-05
5 *24:4 7.82436e-05
6 *24:5 0.000374886
7 *24:6 0.000374886
8 *24:7 0.00134667
9 *24:8 0.00134667

*RES
1 *24:8 *1400:Y 1.4
2 *24:7 *24:8 7.45731
3 *24:6 *24:7 1.4
4 *24:5 *24:6 2.36139
5 *24:4 *24:5 1.4
6 *24:3 *24:4 0.621413
7 *24:2 *24:3 1.4
8 *24:1 *24:2 0.0621429
9 *24 *24:1 0.0621429
*END

*D_NET *25 0.0301402

*CONN
*I *1250:SI I *C 49.445 34.075 *L 0.00172 *D SDFFQX1
*I *1207:B I *C 65.105 32.045 *L 0.00284 *D NAND2X1
*I *1061:A0 I *C 66.555 28.855 *L 0.00265 *D OAI22X1
*I *1181:A1 I *C 68.875 23.635 *L 0.00277 *D OAI22X1
*I *1179:A1 I *C 69.455 15.805 *L 0.00277 *D OAI22X1
*I *1130:A I *C 69.745 12.905 *L 0.00162 *D NOR2XL
*I *1208:B I *C 61.625 13.195 *L 0.00536 *D AND2X6
*I *1133:B1 I *C 44.515 12.905 *L 0.00268 *D AOI221X1
*I *1354:A1 I *C 35.815 21.315 *L 0.00168 *D AO22XL
*I *1353:A1 I *C 30.015 12.905 *L 0.00168 *D AO22XL
*I *1352:A1 I *C 36.395 23.345 *L 0.00168 *D AO22XL
*I *1177:B0 I *C 24.505 16.095 *L 0.00159 *D AOI22XL
*I *1180:B1 I *C 36.105 26.535 *L 0.00283 *D AOI22X1
*I *1184:B1 I *C 16.675 10.875 *L 0.00283 *D AOI22X1
*I *1185:B1 I *C 16.385 16.095 *L 0.00283 *D AOI22X1
*I *1176:B0 I *C 16.385 26.535 *L 0.00159 *D AOI22XL
*I *1213:A I *C 12.325 10.585 *L 0.0208 *D INVX8
*I *1183:B1 I *C 9.425 10.875 *L 0.00283 *D AOI22X1
*I *1178:B1 I *C 19.865 10.875 *L 0.00283 *D AOI22X1
*I *1175:B0 I *C 12.615 28.565 *L 0.00159 *D AOI22XL
*I *1182:B1 I *C 5.075 16.095 *L 0.00283 *D AOI22X1
*I *1218:B I *C 19.285 34.075 *L 0.00272 *D NOR3BX1
*I *1387:Q O *C 11.745 33.495 *L 0 *D SDFFQX1
*I *1202:B I *C 22.185 34.075 *L 0.00171 *D NOR2XL
*I *1216:B I *C 22.185 31.755 *L 0.00284 *D NAND2BX1
*I *1391:A1 I *C 7.685 36.975 *L 0.00168 *D AO22XL

*CAP
1 *25:1 0.000176312
2 *25:2 0.000176312
3 *25:3 0.00150167
4 *25:4 0.00158458
5 *25:5 8.29136e-05
6 *25:7 0.000264082
7 *25:9 0.00060858
8 *25:10 5.52757e-05
9 *25:11 0.000344498
10 *25:12 5.52757e-05
11 *25:13 0.000201844
12 *25:15 0.000201844
13 *25:17 6.3506e-05
14 *25:18 0.000656229
15 *25:19 5.04611e-05
16 *25:20 0.000592723
17 *25:21 5.04611e-05
18 *25:22 0.000100922
19 *25:24 0.000227075
20 *25:26 0.000126153
21 *25:27 2.11687e-05
22 *25:28 0.000190518
23 *25:29 2.11687e-05
24 *25:30 0.000190518
25 *25:32 0.000100922
26 *25:33 0.000807377
27 *25:35 0.00220597
28 *25:37 2.11687e-05
29 *25:38 0.00226879
30 *25:39 2.11687e-05
31 *25:41 0.000769271
32 *25:44 2.11568e-05
33 *25:45 0.000613548
34 *25:46 0.00074049
35 *25:47 0.000512847
36 *25:48 0.000386869
37 *25:50 0.000978747
38 *25:51 0.000238771
39 *25:52 5.12847e-05
40 *25:53 2.11568e-05
41 *25:54 0.0004659
42 *25:55 2.86085e-05
43 *25:56 5.12847e-05
44 *25:57 2.11568e-05
45 *25:58 0.00020507
46 *25:59 2.86085e-05
47 *25:62 0.00020507
48 *25:66 0.000587754
49 *25:68 0.000609523
50 *25:69 0.000369126
51 *25:70 2.17687e-05
52 *25:71 0.000430647
53 *25:72 0.00074265
54 *25:74 0.00032653
55 *25:75 6.1521e-05
56 *25:76 0.000859847
57 *25:78 0.000544217
58 *25:79 0.000239455
59 *25:80 0.000117197
60 *25:82 2.0507e-05
61 *25:83 0.000478911
62 *25:84 0.000239455
63 *25:85 0.00030809
64 *25:86 2.0507e-05
65 *25:88 0.000261224
66 *25:89 6.1521e-05
67 *25:90 0.00030809
68 *25:93 0.000369126
69 *25:94 6.1521e-05
70 *25:95 4.68787e-05
71 *25:96 0.000369126
72 *25:98 0.000468787
73 *25:99 6.5306e-05
74 *25:100 0.000445348
75 *25:102 6.5306e-05
76 *25:103 2.34394e-05
77 *25:104 7.10977e-05
78 *25:106 0.000545082
79 *25:107 0.000284391
80 *25:109 0.000758375
81 *25:110 2.34394e-05
82 *25:111 0.000213293
83 *25:112 0.000236992
84 *25:114 2.34394e-05
85 *25:115 9.37574e-05
86 *25:116 2.36992e-05
87 *25:119 9.37574e-05
88 *25:120 0.000187515
89 *25:121 0.000118496
90 *25:123 0.000187515
91 *25:124 0.000118496
92 *25:126 0.000164075
93 *25:127 0.000164075

*RES
1 *25:127 *1391:A1 1.4
2 *25:126 *25:127 0.869979
3 *25:124 *25:126 1.4
4 *25:123 *1216:B 1.4
5 *25:121 *25:124 0.621444
6 *25:120 *25:123 0.994261
7 *25:120 *1202:B 1.4
8 *25:119 *25:121 1.4
9 *25:116 *25:120 1.4
10 *25:115 *25:119 0.497131
11 *25:114 *1387:Q 1.4
12 *25:113 *1218:B 1.4
13 *25:112 *25:116 0.124289
14 *25:111 *25:115 1.4
15 *25:110 *25:114 0.124283
16 *25:109 *25:113 1.4
17 *25:109 *25:112 1.1186
18 *25:107 *25:111 1.1186
19 *25:107 *25:110 1.4
20 *25:106 *25:109 2.85864
21 *25:105 *1182:B1 1.4
22 *25:104 *25:107 0.372866
23 *25:103 *25:106 1.4
24 *25:102 *25:105 1.4
25 *25:100 *25:104 1.4
26 *25:100 *25:103 0.124283
27 *25:99 *25:102 0.372866
28 *25:98 *1175:B0 1.4
29 *25:98 *25:100 2.23709
30 *25:96 *25:99 1.4
31 *25:95 *25:98 0.248565
32 *25:94 *1178:B1 1.4
33 *25:93 *25:96 2.2371
34 *25:90 *25:95 1.4
35 *25:89 *25:94 0.37285
36 *25:88 *25:93 1.4
37 *25:87 *1183:B1 1.4
38 *25:86 *1213:A 1.4
39 *25:85 *25:90 1.61575
40 *25:84 *25:89 1.4
41 *25:83 *25:88 1.49146
42 *25:83 *25:87 1.4
43 *25:82 *25:86 0.124283
44 *25:80 *25:85 1.4
45 *25:79 *25:84 1.36718
46 *25:78 *25:83 1.24289
47 *25:78 *25:82 1.4
48 *25:76 *1176:B0 1.4
49 *25:76 *25:80 0.621413
50 *25:75 *25:79 1.4
51 *25:74 *25:78 1.86433
52 *25:72 *1185:B1 1.4
53 *25:72 *25:76 4.4742
54 *25:71 *25:75 0.37285
55 *25:71 *25:74 1.4
56 *25:71 *1184:B1 1.4
57 *25:70 *25:72 1.4
58 *25:69 *25:71 2.2371
59 *25:68 *25:70 0.124289
60 *25:68 *25:69 1.4
61 *25:66 *25:68 3.3558
62 *25:63 *1180:B1 1.4
63 *25:62 *25:66 1.4
64 *25:62 *1177:B0 1.4
65 *25:60 *1352:A1 1.4
66 *25:59 *25:63 1.4
67 *25:58 *25:62 1.24283
68 *25:57 *1353:A1 1.4
69 *25:56 *25:60 1.4
70 *25:55 *25:59 0.124289
71 *25:54 *25:58 1.4
72 *25:53 *25:57 0.124288
73 *25:52 *25:56 0.248565
74 *25:51 *25:55 1.4
75 *25:50 *25:54 2.3614
76 *25:50 *25:53 1.4
77 *25:48 *25:52 1.4
78 *25:48 *25:51 1.36717
79 *25:47 *25:50 2.48565
80 *25:46 *1354:A1 1.4
81 *25:46 *25:48 0.870017
82 *25:45 *25:47 1.4
83 *25:45 *25:46 3.48007
84 *25:44 *25:45 0.124288
85 *25:41 *25:44 1.4
86 *25:40 *1133:B1 1.4
87 *25:39 *1208:B 1.4
88 *25:38 *25:41 3.72848
89 *25:38 *25:40 1.4
90 *25:37 *25:39 0.124289
91 *25:35 *25:38 7.33268
92 *25:35 *25:37 1.4
93 *25:34 *1130:A 1.4
94 *25:33 *25:35 3.47991
95 *25:33 *25:34 1.4
96 *25:32 *25:33 0.497131
97 *25:30 *25:32 1.4
98 *25:29 *1179:A1 1.4
99 *25:28 *25:30 1.1186
100 *25:27 *25:29 0.124289
101 *25:26 *25:28 1.4
102 *25:24 *25:27 1.4
103 *25:24 *25:26 0.621413
104 *25:23 *1181:A1 1.4
105 *25:22 *25:24 0.497131
106 *25:21 *25:23 1.4
107 *25:20 *25:22 1.4
108 *25:19 *25:21 0.248565
109 *25:18 *25:20 3.48009
110 *25:18 *25:19 1.4
111 *25:17 *25:18 0.372866
112 *25:15 *25:17 1.4
113 *25:14 *1061:A0 1.4
114 *25:13 *25:15 0.994261
115 *25:12 *25:14 1.4
116 *25:11 *25:13 1.4
117 *25:10 *25:12 0.248576
118 *25:9 *25:11 1.86427
119 *25:9 *25:10 1.4
120 *25:7 *25:9 1.36711
121 *25:6 *1207:B 1.4
122 *25:5 *25:7 1.4
123 *25:4 *25:6 1.4
124 *25:4 *25:5 0.372865
125 *25:3 *25:4 6.71157
126 *25:2 *25:3 1.4
127 *25:1 *25:2 0.870014
128 *1250:SI *25:1 1.4
*END

*D_NET *26 0.00777813

*CONN
*I *1195:A I *C 22.475 42.195 *L 0.00263 *D NOR2X1
*I *1203:A I *C 22.185 39.295 *L 0.00178 *D AND2X1
*I *1204:A I *C 20.155 39.005 *L 0.00162 *D NOR2XL
*I *946:A I *C 18.995 36.685 *L 0.00178 *D AND3X1
*I *1131:B I *C 15.515 36.975 *L 0.0028 *D NOR2BX1
*I *1202:A I *C 21.895 33.785 *L 0.00162 *D NOR2XL
*I *1218:AN I *C 19.865 33.785 *L 0.0018 *D NOR3BX1
*I *1196:B I *C 12.325 41.905 *L 0.00172 *D AND2X1
*I *1390:A1 I *C 8.845 42.195 *L 0.00168 *D AO22XL
*I *1386:Q O *C 4.205 43.935 *L 0 *D SDFFQX1
*I *1387:SI I *C 5.075 34.075 *L 0.00172 *D SDFFQX1

*CAP
1 *26:2 7.10977e-05
2 *26:3 7.10977e-05
3 *26:4 0.000234394
4 *26:5 0.000234394
5 *26:6 9.47969e-05
6 *26:7 0.000260692
7 *26:9 0.000165895
8 *26:11 2.34394e-05
9 *26:12 0.000187515
10 *26:14 0.000164075
11 *26:15 0.000142195
12 *26:16 4.73985e-05
13 *26:17 0.000379188
14 *26:18 0.000257833
15 *26:19 2.34394e-05
16 *26:20 0.000379188
17 *26:21 0.000257833
18 *26:22 2.34394e-05
19 *26:24 9.47969e-05
20 *26:25 0.000165895
21 *26:28 0.000398469
22 *26:29 9.47969e-05
23 *26:30 7.10977e-05
24 *26:31 0.000398469
25 *26:34 0.000165895
26 *26:37 0.000450285
27 *26:39 0.000473985
28 *26:41 2.34394e-05
29 *26:42 0.000236992
30 *26:43 2.34394e-05
31 *26:44 0.000164075
32 *26:45 4.73985e-05
33 *26:47 0.000164075
34 *26:48 0.000632863
35 *26:49 0.000189594
36 *26:50 0.000632863
37 *26:51 0.000189594
38 *26:52 7.10977e-05
39 *26:54 7.10977e-05

*RES
1 *26:56 *1387:SI 1.4
2 *26:54 *26:56 1.4
3 *26:53 *1386:Q 1.4
4 *26:52 *26:54 0.372866
5 *26:51 *26:53 1.4
6 *26:50 *26:52 1.4
7 *26:49 *26:51 0.99431
8 *26:48 *26:50 3.35563
9 *26:47 *26:49 1.4
10 *26:45 *26:48 1.4
11 *26:44 *26:47 0.869979
12 *26:43 *1390:A1 1.4
13 *26:42 *26:45 0.248577
14 *26:42 *26:44 1.4
15 *26:41 *26:43 0.124283
16 *26:39 *26:42 0.99431
17 *26:39 *26:41 1.4
18 *26:38 *1196:B 1.4
19 *26:37 *26:39 1.49146
20 *26:37 *26:38 1.4
21 *26:34 *26:37 0.870021
22 *26:33 *1218:AN 1.4
23 *26:32 *1202:A 1.4
24 *26:31 *26:34 1.4
25 *26:30 *26:33 1.4
26 *26:29 *26:32 1.4
27 *26:28 *26:31 2.11281
28 *26:25 *26:30 0.372866
29 *26:25 *26:29 0.497155
30 *26:24 *26:28 1.4
31 *26:23 *1131:B 1.4
32 *26:22 *946:A 1.4
33 *26:21 *26:25 1.4
34 *26:20 *26:24 0.497155
35 *26:20 *26:23 1.4
36 *26:19 *26:22 0.124283
37 *26:18 *26:21 1.36711
38 *26:17 *26:20 1.49146
39 *26:17 *26:19 1.4
40 *26:16 *26:18 1.4
41 *26:15 *26:17 0.497155
42 *26:15 *26:16 0.248577
43 *26:14 *26:15 1.4
44 *26:12 *26:14 0.869979
45 *26:12 *1204:A 1.4
46 *26:11 *26:12 0.124283
47 *26:9 *26:11 1.4
48 *26:8 *1203:A 1.4
49 *26:7 *26:9 0.870021
50 *26:7 *26:8 1.4
51 *26:6 *26:7 0.497155
52 *26:5 *26:6 1.4
53 *26:4 *26:5 1.24283
54 *26:3 *26:4 1.4
55 *26:2 *26:3 0.372866
56 *26:1 *26:2 1.4
57 *1195:A *26:1 1.4
*END

*D_NET *27 0.00864844

*CONN
*I *1335:AN I *C 29.145 31.465 *L 0.00181 *D NAND4BBXL
*I *1336:A I *C 29.725 33.785 *L 0.00264 *D NAND3X1
*I *1195:B I *C 22.765 42.195 *L 0.0028 *D NOR2X1
*I *1211:A I *C 17.545 42.195 *L 0.00273 *D CLKINVX1
*I *941:A I *C 14.935 41.905 *L 0.00178 *D AND3X1
*I *940:A I *C 15.225 39.295 *L 0.00178 *D AND3X1
*I *1217:B I *C 16.965 33.785 *L 0.0028 *D NOR2BX1
*I *1196:A I *C 12.905 41.905 *L 0.00178 *D AND2X1
*I *1385:Q O *C 11.745 38.715 *L 0 *D SDFFQX1
*I *1386:SI I *C 10.875 44.515 *L 0.00172 *D SDFFQX1
*I *1388:A1 I *C 6.815 42.195 *L 0.00168 *D AO22XL

*CAP
1 *27:2 2.86085e-05
2 *27:3 2.86085e-05
3 *27:4 0.000201499
4 *27:5 0.000226687
5 *27:6 2.51874e-05
6 *27:7 2.86085e-05
7 *27:8 0.000435644
8 *27:9 2.86085e-05
9 *27:10 0.000435644
10 *27:12 0.000656302
11 *27:14 0.000656302
12 *27:15 0.000165895
13 *27:16 0.000592481
14 *27:18 0.000497684
15 *27:21 0.000213293
16 *27:23 0.000234394
17 *27:24 0.000142195
18 *27:25 0.000679741
19 *27:26 4.68787e-05
20 *27:27 0.000118496
21 *27:28 0.000445348
22 *27:29 2.34394e-05
23 *27:30 2.34394e-05
24 *27:31 0.000118496
25 *27:32 2.36992e-05
26 *27:33 0.000165895
27 *27:36 2.36992e-05
28 *27:37 0.000284391
29 *27:40 4.68787e-05
30 *27:41 0.000213293
31 *27:43 4.68787e-05
32 *27:44 0.000304712
33 *27:45 9.47969e-05
34 *27:47 0.000304712
35 *27:48 0.000187515
36 *27:49 2.36992e-05
37 *27:50 0.000164075
38 *27:51 2.34394e-05
39 *27:52 2.36992e-05
40 *27:53 4.73985e-05
41 *27:54 0.000284391
42 *27:56 4.73985e-05
43 *27:57 0.000284391

*RES
1 *27:60 *1388:A1 1.4
2 *27:59 *1386:SI 1.4
3 *27:57 *27:60 1.4
4 *27:56 *27:59 1.4
5 *27:55 *1385:Q 1.4
6 *27:54 *27:57 1.49146
7 *27:53 *27:56 0.248577
8 *27:52 *27:55 1.4
9 *27:51 *27:54 1.4
10 *27:50 *27:53 1.4
11 *27:49 *27:52 0.124289
12 *27:48 *27:51 0.124283
13 *27:48 *27:50 0.869979
14 *27:47 *27:49 1.4
15 *27:45 *27:48 1.4
16 *27:44 *27:47 1.61567
17 *27:43 *1196:A 1.4
18 *27:41 *27:45 0.497155
19 *27:41 *27:44 1.4
20 *27:40 *27:43 0.248565
21 *27:39 *1217:B 1.4
22 *27:37 *27:41 0.621444
23 *27:37 *27:40 1.4
24 *27:36 *27:39 1.4
25 *27:35 *940:A 1.4
26 *27:33 *27:37 0.870021
27 *27:32 *27:36 0.124289
28 *27:31 *27:35 1.4
29 *27:30 *941:A 1.4
30 *27:29 *27:33 1.4
31 *27:28 *27:32 1.4
32 *27:27 *27:31 0.621444
33 *27:26 *27:30 0.124283
34 *27:26 *27:29 0.124283
35 *27:25 *27:28 2.36137
36 *27:25 *27:27 1.4
37 *27:24 *27:26 1.4
38 *27:23 *27:25 1.24283
39 *27:21 *27:24 0.745732
40 *27:21 *27:23 1.4
41 *27:20 *1211:A 1.4
42 *27:18 *27:21 0.372866
43 *27:18 *27:20 1.4
44 *27:17 *1195:B 1.4
45 *27:16 *27:18 2.2372
46 *27:16 *27:17 1.4
47 *27:15 *27:16 0.870021
48 *27:14 *27:15 1.4
49 *27:12 *27:14 3.47991
50 *27:11 *1336:A 1.4
51 *27:10 *27:12 1.4
52 *27:9 *27:11 1.4
53 *27:8 *27:10 1.98862
54 *27:7 *27:9 0.124289
55 *27:6 *27:8 1.4
56 *27:5 *27:7 1.4
57 *27:5 *27:6 0.124288
58 *27:4 *27:5 0.994302
59 *27:3 *27:4 1.4
60 *27:2 *27:3 0.124289
61 *27:1 *27:2 1.4
62 *1335:AN *27:1 1.4
*END

*D_NET *28 0.0295166

*CONN
*I *1207:A I *C 65.395 31.755 *L 0.00267 *D NAND2X1
*I *1038:A0 I *C 68.06 21.3275 *L 0.00263 *D AOI211X1
*I *1186:B1 I *C 71.775 28.565 *L 0.00283 *D AOI22X1
*I *1205:A I *C 41.325 13.195 *L 0.00228 *D CLKAND2X2
*I *1212:A I *C 68.005 18.125 *L 0.00521 *D CLKINVX2
*I *1051:A0 I *C 66.32 18.1125 *L 0.00263 *D AOI211X1
*I *1118:A0 I *C 39.585 23.345 *L 0.00265 *D AOI21X1
*I *1119:S0 I *C 39.295 21.025 *L 0.00372 *D MXI2XL
*I *1174:B1 I *C 72.645 12.905 *L 0.00283 *D AOI22X1
*I *1129:A I *C 38.715 26.535 *L 0.00162 *D NOR2XL
*I *1331:B I *C 33.205 28.565 *L 0.00284 *D NAND2BX1
*I *1325:A I *C 26.825 28.855 *L 0.00157 *D NAND2XL
*I *1329:A I *C 18.415 28.565 *L 0.00162 *D NOR2XL
*I *1193:B I *C 26.535 39.295 *L 0.00167 *D NAND2XL
*I *1194:B I *C 17.835 31.465 *L 0.00171 *D NOR2XL
*I *1389:A1 I *C 13.195 36.975 *L 0.00168 *D AO22XL
*I *1116:S0 I *C 13.775 26.245 *L 0.00372 *D MXI2XL
*I *1120:S0 I *C 8.265 21.025 *L 0.00372 *D MXI2XL
*I *1121:S0 I *C 19.575 15.805 *L 0.00372 *D MXI2XL
*I *1117:S0 I *C 22.475 15.805 *L 0.00372 *D MXI2XL
*I *1385:SI I *C 5.075 39.295 *L 0.00172 *D SDFFQX1
*I *1384:Q O *C 5.365 31.755 *L 0 *D SDFFHQX4

*CAP
1 *28:2 5.52757e-05
2 *28:3 5.52757e-05
3 *28:4 0.000288089
4 *28:5 0.000288089
5 *28:6 0.000304017
6 *28:7 0.000304017
7 *28:8 2.40074e-05
8 *28:9 0.000528244
9 *28:10 0.000359292
10 *28:11 0.000551684
11 *28:12 0.000359292
12 *28:13 4.01475e-06
13 *28:14 4.34323e-05
14 *28:15 4.80149e-05
15 *28:17 5.04611e-05
16 *28:18 4.80149e-05
17 *28:19 0.00233665
18 *28:21 0.000148181
19 *28:22 0.00228619
20 *28:23 0.000148181
21 *28:24 6.34705e-05
22 *28:25 0.000151383
23 *28:26 0.000550078
24 *28:27 5.04611e-05
25 *28:28 0.000100922
26 *28:29 0.000153854
27 *28:30 0.000486607
28 *28:31 4.23373e-05
29 *28:32 4.30673e-05
30 *28:33 0.000153854
31 *28:35 0.000444542
32 *28:36 4.7082e-05
33 *28:37 8.46274e-05
34 *28:39 0.000402205
35 *28:40 4.01475e-06
36 *28:41 0.000253882
37 *28:42 0.000403689
38 *28:44 0.000408026
39 *28:45 2.56424e-05
40 *28:46 0.000403689
41 *28:47 0.000238771
42 *28:49 2.56424e-05
43 *28:50 2.11687e-05
44 *28:51 8.58254e-05
45 *28:53 2.11687e-05
46 *28:54 0.000457736
47 *28:58 0.00037191
48 *28:60 0.000125937
49 *28:61 0.000125937
50 *28:62 0.000171651
51 *28:63 0.000801038
52 *28:64 5.03749e-05
53 *28:65 0.000629387
54 *28:66 5.03749e-05
55 *28:67 7.55623e-05
56 *28:69 0.000151125
57 *28:70 7.55623e-05
58 *28:72 0.000130769
59 *28:73 0.000675852
60 *28:74 0.000773499
61 *28:75 0.000568781
62 *28:76 0.000773499
63 *28:77 9.37574e-05
64 *28:78 2.36992e-05
65 *28:79 0.000102161
66 *28:80 9.37574e-05
67 *28:81 9.37574e-05
68 *28:82 0.000102161
69 *28:83 7.10977e-05
70 *28:84 9.37574e-05
71 *28:86 9.47969e-05
72 *28:89 4.68787e-05
73 *28:90 0.000379188
74 *28:91 4.68787e-05
75 *28:92 0.00037503
76 *28:93 0.000355488
77 *28:95 0.00037503
78 *28:96 0.000492226
79 *28:97 0.000426586
80 *28:98 0.000515666
81 *28:99 0.000118496
82 *28:100 0.000758375
83 *28:101 2.34394e-05
84 *28:103 0.000739718
85 *28:105 0.000450285
86 *28:106 0.000545082
87 *28:107 0.000739718
88 *28:109 0.000370592
89 *28:110 0.000545082
90 *28:111 4.35373e-05
91 *28:112 0.000370592
92 *28:113 0.000609423
93 *28:114 0.000261224
94 *28:116 0.000164075
95 *28:117 0.000445348
96 *28:118 0.000217687
97 *28:120 0.000118496
98 *28:121 9.47969e-05
99 *28:124 0.000118496
100 *28:125 9.47969e-05

*RES
1 *28:128 *1384:Q 1.4
2 *28:127 *1385:SI 1.4
3 *28:125 *28:128 1.4
4 *28:124 *28:127 1.4
5 *28:122 *1117:S0 1.4
6 *28:121 *28:125 0.497155
7 *28:120 *28:124 0.621444
8 *28:119 *1121:S0 1.4
9 *28:118 *28:122 1.4
10 *28:117 *28:121 1.4
11 *28:116 *28:120 1.4
12 *28:114 *28:119 1.4
13 *28:114 *28:118 1.24289
14 *28:113 *28:117 2.36137
15 *28:113 *28:116 0.869979
16 *28:112 *1120:S0 1.4
17 *28:111 *28:114 0.248578
18 *28:110 *28:113 1.4
19 *28:109 *28:112 2.2371
20 *28:107 *28:111 1.4
21 *28:106 *28:110 2.85864
22 *28:105 *28:109 1.4
23 *28:104 *1116:S0 1.4
24 *28:103 *28:107 4.4742
25 *28:101 *28:106 1.4
26 *28:100 *28:105 2.36149
27 *28:100 *28:104 1.4
28 *28:99 *28:103 1.4
29 *28:98 *1389:A1 1.4
30 *28:98 *28:101 0.124283
31 *28:97 *28:100 1.61575
32 *28:97 *28:99 0.621444
33 *28:96 *28:98 2.60994
34 *28:95 *28:97 1.4
35 *28:93 *28:96 1.4
36 *28:92 *28:95 1.98852
37 *28:91 *1194:B 1.4
38 *28:90 *28:93 1.86433
39 *28:90 *28:92 1.4
40 *28:89 *28:91 0.248565
41 *28:86 *28:90 0.124289
42 *28:86 *28:89 1.4
43 *28:85 *1193:B 1.4
44 *28:84 *1329:A 1.4
45 *28:83 *28:86 0.372866
46 *28:82 *28:85 1.4
47 *28:81 *28:84 0.497131
48 *28:80 *28:83 1.4
49 *28:79 *28:82 0.497155
50 *28:78 *28:81 1.4
51 *28:77 *28:80 0.497131
52 *28:76 *28:79 1.4
53 *28:75 *28:78 0.124289
54 *28:75 *28:77 1.4
55 *28:74 *28:76 4.10133
56 *28:73 *28:75 2.85864
57 *28:73 *28:74 1.4
58 *28:72 *28:73 0.621444
59 *28:70 *28:72 1.4
60 *28:69 *1325:A 1.4
61 *28:69 *28:70 0.372863
62 *28:67 *28:69 0.372863
63 *28:66 *1331:B 1.4
64 *28:65 *28:67 1.4
65 *28:64 *28:66 0.248575
66 *28:63 *28:65 2.73435
67 *28:63 *28:64 1.4
68 *28:62 *28:63 0.745732
69 *28:61 *28:62 1.4
70 *28:60 *28:61 0.621439
71 *28:58 *28:60 1.4
72 *28:57 *1129:A 1.4
73 *28:54 *28:58 1.61575
74 *28:54 *28:57 1.4
75 *28:53 *1174:B1 1.4
76 *28:52 *1119:S0 1.4
77 *28:51 *28:54 0.372866
78 *28:50 *28:53 0.124289
79 *28:49 *28:52 1.4
80 *28:47 *28:51 1.4
81 *28:46 *28:50 1.4
82 *28:45 *28:49 0.124283
83 *28:44 *1118:A0 1.4
84 *28:44 *28:47 1.36717
85 *28:42 *28:46 1.98852
86 *28:41 *28:45 1.4
87 *28:41 *28:44 0.994305
88 *28:40 *1051:A0 1.4
89 *28:39 *28:42 1.4
90 *28:37 *28:41 0.497152
91 *28:36 *28:40 0.023572
92 *28:35 *28:39 2.36149
93 *28:35 *1212:A 1.4
94 *28:33 *28:37 1.4
95 *28:32 *28:36 0.252863
96 *28:31 *28:35 0.248578
97 *28:30 *1205:A 1.4
98 *28:29 *28:33 0.745696
99 *28:28 *28:32 1.4
100 *28:27 *28:31 1.4
101 *28:26 *28:30 2.85863
102 *28:26 *28:29 1.4
103 *28:25 *28:28 0.497131
104 *28:25 *28:27 0.248565
105 *28:24 *28:26 0.372864
106 *28:23 *28:25 1.4
107 *28:22 *28:24 1.4
108 *28:21 *28:23 0.870021
109 *28:19 *28:22 11.1854
110 *28:19 *28:21 1.4
111 *28:18 *1186:B1 1.4
112 *28:17 *28:19 0.248565
113 *28:15 *28:18 0.248565
114 *28:14 *28:17 1.4
115 *28:13 *1038:A0 1.4
116 *28:12 *28:15 1.4
117 *28:11 *28:14 0.255006
118 *28:11 *28:13 0.023572
119 *28:10 *28:12 1.61575
120 *28:9 *28:11 2.85217
121 *28:9 *28:10 1.4
122 *28:8 *28:9 0.124283
123 *28:7 *28:8 1.4
124 *28:6 *28:7 1.36717
125 *28:5 *28:6 1.4
126 *28:4 *28:5 1.49139
127 *28:3 *28:4 1.4
128 *28:2 *28:3 0.248576
129 *28:1 *28:2 1.4
130 *1207:A *28:1 1.4
*END

*D_NET *29 0.00618141

*CONN
*I *1398:A I *C 99.325 16.095 *L 0.00162 *D NOR2XL
*I *1410:A I *C 98.455 18.125 *L 0.00273 *D CLKINVX1
*I *1422:B I *C 93.235 21.025 *L 0.00167 *D NAND2XL
*I *1421:A2 I *C 82.215 21.025 *L 0.00281 *D OAI32X1
*I *1426:AN I *C 95.265 23.345 *L 0.00178 *D NAND2BX1
*I *1413:SI I *C 96.715 28.855 *L 0.00172 *D SDFFQX1
*I *1409:A I *C 97.585 26.245 *L 0.00157 *D NAND2XL
*I *1414:Q O *C 94.685 32.045 *L 0 *D SDFFQX1

*CAP
1 *29:2 4.36826e-05
2 *29:3 4.36826e-05
3 *29:4 0.000291779
4 *29:5 0.000291779
5 *29:6 2.18413e-05
6 *29:7 0.000283937
7 *29:8 0.000134667
8 *29:9 0.000262095
9 *29:10 0.000134667
10 *29:11 8.97783e-05
11 *29:13 0.000336669
12 *29:14 0.00024689
13 *29:15 0.000131048
14 *29:16 2.18413e-05
15 *29:17 0.000961016
16 *29:18 0.000131048
17 *29:20 0.000829969
18 *29:21 0.000109206
19 *29:22 6.73337e-05
20 *29:25 0.000157024
21 *29:26 6.73337e-05
22 *29:28 0.000357442
23 *29:30 0.000445373
24 *29:31 7.1453e-05
25 *29:32 0.000244955
26 *29:34 7.1453e-05
27 *29:35 0.000166724
28 *29:37 0.000166724

*RES
1 *29:39 *1414:Q 1.4
2 *29:37 *29:39 1.4
3 *29:36 *1409:A 1.4
4 *29:35 *29:37 0.869979
5 *29:34 *29:36 1.4
6 *29:32 *29:35 1.4
7 *29:31 *29:34 0.372848
8 *29:30 *1413:SI 1.4
9 *29:30 *29:32 1.36717
10 *29:28 *29:31 1.4
11 *29:28 *29:30 1.11859
12 *29:26 *1426:AN 1.4
13 *29:25 *29:28 0.870019
14 *29:24 *1421:A2 1.4
15 *29:22 *29:26 0.372865
16 *29:21 *29:25 1.4
17 *29:20 *29:24 1.4
18 *29:19 *1422:B 1.4
19 *29:18 *29:22 1.4
20 *29:18 *29:21 0.621415
21 *29:17 *29:20 4.72275
22 *29:17 *29:19 1.4
23 *29:16 *29:18 0.124283
24 *29:15 *29:17 0.745698
25 *29:14 *29:16 1.4
26 *29:13 *29:15 1.4
27 *29:13 *29:14 1.36717
28 *29:11 *29:13 0.497154
29 *29:10 *1410:A 1.4
30 *29:9 *29:11 1.4
31 *29:8 *29:10 0.745731
32 *29:7 *29:9 1.4914
33 *29:7 *29:8 1.4
34 *29:6 *29:7 0.124283
35 *29:5 *29:6 1.4
36 *29:4 *29:5 1.61575
37 *29:3 *29:4 1.4
38 *29:2 *29:3 0.248566
39 *29:1 *29:2 1.4
40 *1398:A *29:1 1.4
*END

*D_NET *30 0.00854657

*CONN
*I *1407:B I *C 101.065 21.025 *L 0.00167 *D NAND2XL
*I *1400:A0 I *C 100.17 18.4875 *L 0.00161 *D OAI211XL
*I *1431:A I *C 97.005 21.315 *L 0.00273 *D INVX1
*I *1402:A0 I *C 96.715 23.635 *L 0.00265 *D OAI22X1
*I *1426:B I *C 94.395 23.345 *L 0.00284 *D NAND2BX1
*I *1419:B I *C 94.395 18.415 *L 0.00175 *D OR4XL
*I *1425:B0 I *C 87.145 26.535 *L 0.00262 *D OAI22X1
*I *1404:A I *C 81.345 26.245 *L 0.00178 *D AND2X1
*I *1421:A1 I *C 81.925 21.025 *L 0.00271 *D OAI32X1
*I *1429:A I *C 84.535 21.315 *L 0.00162 *D NOR2XL
*I *1368:SI I *C 82.505 15.805 *L 0.00172 *D SDFFQX1
*I *1412:Q O *C 80.185 17.835 *L 0 *D SDFFQX1

*CAP
1 *30:2 6.55238e-05
2 *30:3 6.55238e-05
3 *30:4 2.24446e-05
4 *30:5 0.000196197
5 *30:6 0.000196572
6 *30:7 0.000175687
7 *30:8 0.000196572
8 *30:9 1.93488e-06
9 *30:10 4.48891e-05
10 *30:12 0.000291779
11 *30:13 0.00024689
12 *30:14 4.36826e-05
13 *30:15 6.55238e-05
14 *30:16 4.36826e-05
15 *30:17 0.000240254
16 *30:19 6.73337e-05
17 *30:20 0.00017473
18 *30:22 6.73337e-05
19 *30:23 4.48891e-05
20 *30:25 8.97783e-05
21 *30:26 0.000546032
22 *30:27 0.000426447
23 *30:28 0.000546032
24 *30:30 0.000381558
25 *30:31 0.000134667
26 *30:33 0.000201737
27 *30:34 6.70698e-05
28 *30:35 0.000436826
29 *30:37 0.000436826
30 *30:38 0.00038147
31 *30:39 4.48012e-05
32 *30:40 0.000336669
33 *30:42 4.36826e-05
34 *30:43 0.000152889
35 *30:44 0.000196572
36 *30:45 2.24446e-05
37 *30:46 8.73651e-05
38 *30:47 0.000426447
39 *30:48 0.000269335
40 *30:50 0.000426447
41 *30:52 0.00024689
42 *30:54 6.55238e-05
43 *30:55 0.000131048
44 *30:56 6.55238e-05
45 *30:57 0.000131048

*RES
1 *30:59 *1412:Q 1.4
2 *30:58 *1368:SI 1.4
3 *30:57 *30:59 1.4
4 *30:56 *30:58 1.4
5 *30:55 *30:57 0.745698
6 *30:54 *30:56 0.372849
7 *30:52 *30:55 1.4
8 *30:50 *30:54 1.4
9 *30:49 *1429:A 1.4
10 *30:48 *30:52 1.36717
11 *30:48 *1421:A1 1.4
12 *30:47 *30:50 2.36148
13 *30:46 *30:49 1.4
14 *30:45 *30:48 0.124288
15 *30:44 *30:47 1.4
16 *30:44 *30:46 0.497132
17 *30:43 *30:45 1.4
18 *30:43 *30:44 0.621415
19 *30:42 *30:43 0.248566
20 *30:40 *30:42 1.4
21 *30:39 *1404:A 1.4
22 *30:38 *30:40 1.86433
23 *30:38 *30:39 0.248577
24 *30:37 *30:38 1.4
25 *30:35 *30:37 2.48566
26 *30:34 *1425:B0 1.4
27 *30:33 *30:35 1.4
28 *30:33 *30:34 0.372864
29 *30:31 *30:33 0.745731
30 *30:30 *1419:B 1.4
31 *30:28 *30:31 1.4
32 *30:27 *30:30 2.1129
33 *30:27 *1426:B 1.4
34 *30:26 *30:28 3.10708
35 *30:25 *30:27 0.248577
36 *30:25 *30:26 1.4
37 *30:23 *30:25 0.248577
38 *30:22 *1402:A0 1.4
39 *30:20 *30:23 1.4
40 *30:19 *30:22 0.372865
41 *30:18 *1431:A 1.4
42 *30:17 *30:20 0.994264
43 *30:17 *30:19 1.4
44 *30:16 *30:18 1.4
45 *30:15 *30:17 0.372849
46 *30:14 *30:16 0.248566
47 *30:13 *30:15 1.4
48 *30:12 *30:14 1.4
49 *30:12 *30:13 1.36717
50 *30:10 *30:12 0.248577
51 *30:9 *1400:A0 1.4
52 *30:8 *30:10 1.4
53 *30:7 *30:9 0.0107145
54 *30:6 *30:8 1.11855
55 *30:5 *30:7 0.962164
56 *30:5 *30:6 1.4
57 *30:4 *30:5 0.124288
58 *30:3 *30:4 1.4
59 *30:2 *30:3 0.372849
60 *30:1 *30:2 1.4
61 *1407:B *30:1 1.4
*END

*D_NET *31 0.00226424

*CONN
*I *1383:SI I *C 79.605 23.635 *L 0.00172 *D SDFFQX1
*I *1425:A0 I *C 88.305 26.245 *L 0.00265 *D OAI22X1
*I *925:Q O *C 89.755 28.275 *L 0 *D SDFFQX1

*CAP
1 *31:2 0.000655239
2 *31:3 0.000655239
3 *31:4 0.000201913
4 *31:5 0.000357794
5 *31:6 0.000155881
6 *31:8 0.000119088
7 *31:9 0.000119088

*RES
1 *31:10 *925:Q 1.4
2 *31:9 *31:10 1.4
3 *31:8 *31:9 0.621413
4 *31:6 *31:8 1.4
5 *31:5 *1425:A0 1.4
6 *31:5 *31:6 0.870015
7 *31:4 *31:5 1.1186
8 *31:3 *31:4 1.4
9 *31:2 *31:3 3.72849
10 *31:1 *31:2 1.4
11 *1383:SI *31:1 1.4
*END

*D_NET *32 0.000416386

*CONN
*I *1419:D I *C 94.975 18.415 *L 0.00161 *D OR4XL
*I *1357:Y O *C 94.8925 15.805 *L 0 *D INVXL

*CAP
1 *32:1 0.000202001
2 *32:2 0.000208193
3 *32:3 6.19161e-06

*RES
1 *32:3 *1357:Y 1.4
2 *32:2 *32:3 0.0342865
3 *32:1 *32:2 1.1186
4 *1419:D *32:1 1.4
*END

*D_NET *33 0.00181391

*CONN
*I *1420:A1 I *C 89.465 17.835 *L 0.0028 *D AOI22X1
*I *1412:SI I *C 86.855 18.415 *L 0.00172 *D SDFFQX1
*I *1421:B0 I *C 83.375 21.315 *L 0.00272 *D OAI32X1
*I *1383:Q O *C 86.275 23.055 *L 0 *D SDFFQX1

*CAP
1 *33:1 2.24446e-05
2 *33:2 2.24446e-05
3 *33:3 0.000196572
4 *33:4 0.000196572
5 *33:5 2.24446e-05
6 *33:6 0.000269335
7 *33:7 0.00024689
8 *33:9 2.18413e-05
9 *33:10 0.000262095
10 *33:11 0.000112223
11 *33:12 0.000240254
12 *33:13 0.000112223
13 *33:14 2.24446e-05
14 *33:15 2.18413e-05
15 *33:16 2.24446e-05
16 *33:17 2.18413e-05

*RES
1 *33:19 *1383:Q 1.4
2 *33:17 *33:19 1.4
3 *33:16 *1421:B0 1.4
4 *33:15 *33:17 0.124283
5 *33:14 *33:16 0.124288
6 *33:13 *33:15 1.4
7 *33:12 *33:14 1.4
8 *33:11 *33:13 0.621442
9 *33:10 *33:12 1.36711
10 *33:10 *33:11 1.4
11 *33:9 *33:10 0.124283
12 *33:7 *33:9 1.4
13 *33:6 *1412:SI 1.4
14 *33:6 *33:7 1.36717
15 *33:5 *33:6 0.124288
16 *33:4 *33:5 1.4
17 *33:3 *33:4 1.11855
18 *33:2 *33:3 1.4
19 *33:1 *33:2 0.124288
20 *1420:A1 *33:1 1.4
*END

*D_NET *34 0.000391039

*CONN
*I *1425:B1 I *C 87.435 26.245 *L 0.00282 *D OAI22X1
*I *1432:Y O *C 85.4875 26.535 *L 0 *D INVX1

*CAP
1 *34:2 0.000166724
2 *34:3 0.000166724
3 *34:4 2.22686e-05
4 *34:5 2.87957e-05
5 *34:6 6.52702e-06

*RES
1 *34:6 *1432:Y 1.4
2 *34:5 *34:6 0.0364292
3 *34:4 *34:5 0.124288
4 *34:3 *34:4 1.4
5 *34:2 *34:3 0.869979
6 *34:1 *34:2 1.4
7 *1425:B1 *34:1 1.4
*END

*D_NET *35 0.00437582

*CONN
*I *1421:B1 I *C 82.795 21.025 *L 0.00282 *D OAI32X1
*I *1403:A I *C 96.715 26.535 *L 0.00162 *D NOR2XL
*I *1425:A1 I *C 88.015 26.245 *L 0.00277 *D OAI22X1
*I *1431:Y O *C 97.3775 21.315 *L 0 *D INVX1
*I *1409:B I *C 98.165 26.245 *L 0.00167 *D NAND2XL

*CAP
1 *35:1 0.000426183
2 *35:2 0.000426183
3 *35:3 0.000428718
4 *35:4 0.00114325
5 *35:5 0.000762165
6 *35:6 2.22686e-05
7 *35:7 4.76353e-05
8 *35:9 2.22686e-05
9 *35:10 0.000426007
10 *35:13 2.22686e-05
11 *35:14 0.000410317
12 *35:15 7.1453e-05
13 *35:16 6.57858e-06
14 *35:17 7.1453e-05
15 *35:19 4.45373e-05
16 *35:20 4.45373e-05

*RES
1 *35:20 *1409:B 1.4
2 *35:19 *35:20 0.248576
3 *35:17 *35:19 1.4
4 *35:16 *1431:Y 1.4
5 *35:15 *35:17 0.372848
6 *35:14 *35:16 0.0364294
7 *35:13 *35:15 1.4
8 *35:10 *35:14 2.23719
9 *35:10 *35:13 0.124288
10 *35:9 *1425:A1 1.4
11 *35:8 *1403:A 1.4
12 *35:7 *35:10 1.4
13 *35:6 *35:9 0.124288
14 *35:5 *35:8 1.4
15 *35:5 *35:7 0.248565
16 *35:4 *35:6 1.4
17 *35:4 *35:5 3.72848
18 *35:3 *35:4 2.23709
19 *35:2 *35:3 1.4
20 *35:1 *35:2 2.36148
21 *1421:B1 *35:1 1.4
*END

*D_NET *36 0.000612763

*CONN
*I *1415:A1 I *C 88.885 21.025 *L 0.00266 *D OAI221X1
*I *1429:Y O *C 85.115 20.735 *L 0 *D NOR2XL

*CAP
1 *36:1 2.24446e-05
2 *36:2 2.24446e-05
3 *36:3 0.000283937
4 *36:4 0.000283937

*RES
1 *36:5 *1429:Y 1.4
2 *36:4 *36:5 1.4
3 *36:3 *36:4 1.61568
4 *36:2 *36:3 1.4
5 *36:1 *36:2 0.124288
6 *1415:A1 *36:1 1.4
*END

*D_NET *37 0.000540194

*CONN
*I *1420:B1 I *C 88.885 18.125 *L 0.00283 *D AOI22X1
*I *1428:Y O *C 91.4125 18.415 *L 0 *D INVXL

*CAP
1 *37:1 2.24446e-05
2 *37:2 2.24446e-05
3 *37:3 0.000196572
4 *37:4 0.000196572
5 *37:5 4.48891e-05
6 *37:6 5.10808e-05
7 *37:7 6.19161e-06

*RES
1 *37:7 *1428:Y 1.4
2 *37:6 *37:7 0.0342865
3 *37:5 *37:6 0.248577
4 *37:4 *37:5 1.4
5 *37:3 *37:4 1.11855
6 *37:2 *37:3 1.4
7 *37:1 *37:2 0.124288
8 *1420:B1 *37:1 1.4
*END

*D_NET *38 0.00138068

*CONN
*I *1424:A I *C 94.685 21.025 *L 0.00173 *D OR2X1
*I *1419:A I *C 93.815 18.415 *L 0.00181 *D OR4XL
*I *1428:A I *C 91.775 18.3525 *L 0.00163 *D INVXL
*I *1430:Y O *C 96.135 17.545 *L 0 *D NAND2BX1

*CAP
1 *38:1 0.000179557
2 *38:2 0.000179557
3 *38:3 6.55238e-05
4 *38:4 0.000218413
5 *38:5 2.24446e-05
6 *38:6 0.000152889
7 *38:7 8.97783e-05
8 *38:8 2.70883e-05
9 *38:10 6.73337e-05
10 *38:11 2.78622e-05
11 *38:12 0.00017473
12 *38:13 7.73951e-07
13 *38:14 0.00017473

*RES
1 *38:16 *1430:Y 1.4
2 *38:14 *38:16 1.4
3 *38:13 *1428:A 1.4
4 *38:12 *38:14 0.994264
5 *38:11 *38:13 0.00428581
6 *38:10 *38:12 1.4
7 *38:8 *38:11 0.150003
8 *38:7 *38:10 0.372865
9 *38:7 *1419:A 1.4
10 *38:6 *38:8 1.4
11 *38:5 *38:7 0.124288
12 *38:4 *38:6 0.869981
13 *38:4 *38:5 1.4
14 *38:3 *38:4 0.372849
15 *38:2 *38:3 1.4
16 *38:1 *38:2 0.994308
17 *1424:A *38:1 1.4
*END

*D_NET *39 0.00199467

*CONN
*I *1418:A I *C 86.565 21.025 *L 0.00157 *D NAND2XL
*I *1420:A0 I *C 89.755 18.415 *L 0.00264 *D AOI22X1
*I *1427:Y O *C 91.495 20.735 *L 0 *D NOR2XL
*I *1422:A I *C 92.655 21.025 *L 0.00157 *D NAND2XL

*CAP
1 *39:1 8.97783e-05
2 *39:2 8.97783e-05
3 *39:3 0.000240254
4 *39:4 0.000240254
5 *39:5 2.24446e-05
6 *39:6 0.000291779
7 *39:7 0.000131048
8 *39:8 0.000269335
9 *39:9 0.000218413
10 *39:11 8.73651e-05
11 *39:12 8.97783e-05
12 *39:13 6.73337e-05
13 *39:14 8.97783e-05
14 *39:15 6.73337e-05

*RES
1 *39:15 *1422:A 1.4
2 *39:14 *1427:Y 1.4
3 *39:13 *39:15 0.372865
4 *39:12 *39:14 0.497154
5 *39:11 *39:13 1.4
6 *39:9 *39:12 1.4
7 *39:9 *39:11 0.497132
8 *39:8 *1420:A0 1.4
9 *39:7 *39:9 0.745698
10 *39:6 *39:8 1.49146
11 *39:6 *39:7 1.4
12 *39:5 *39:6 0.124288
13 *39:4 *39:5 1.4
14 *39:3 *39:4 1.36711
15 *39:2 *39:3 1.4
16 *39:1 *39:2 0.497154
17 *1418:A *39:1 1.4
*END

*D_NET *40 0.000971876

*CONN
*I *1416:B1 I *C 91.785 23.345 *L 0.00274 *D OAI221X1
*I *1426:Y O *C 94.395 22.765 *L 0 *D NAND2BX1
*I *1424:B I *C 95.555 21.315 *L 0.00165 *D OR2X1

*CAP
1 *40:1 2.24446e-05
2 *40:2 2.24446e-05
3 *40:3 0.000196572
4 *40:4 0.000196572
5 *40:5 6.73337e-05
6 *40:6 6.73337e-05
7 *40:7 8.73651e-05
8 *40:9 8.73651e-05
9 *40:10 0.000112223
10 *40:11 0.000112223

*RES
1 *40:11 *1424:B 1.4
2 *40:10 *40:11 0.621442
3 *40:9 *40:10 1.4
4 *40:7 *40:9 0.497132
5 *40:6 *1426:Y 1.4
6 *40:6 *40:7 1.4
7 *40:5 *40:6 0.372865
8 *40:4 *40:5 1.4
9 *40:3 *40:4 1.11855
10 *40:2 *40:3 1.4
11 *40:1 *40:2 0.124288
12 *1416:B1 *40:1 1.4
*END

*D_NET *41 0.001265

*CONN
*I *1417:A1 I *C 93.525 26.245 *L 0.00278 *D OAI211X1
*I *1423:A I *C 91.785 26.535 *L 0.00273 *D INVX1
*I *1425:Y O *C 87.725 25.665 *L 0 *D OAI22X1

*CAP
1 *41:1 4.45373e-05
2 *41:2 4.45373e-05
3 *41:3 0.000142906
4 *41:4 0.000476353
5 *41:5 2.22686e-05
6 *41:6 0.000333447
7 *41:7 2.22686e-05
8 *41:8 8.93385e-05
9 *41:10 8.93385e-05

*RES
1 *41:10 *1425:Y 1.4
2 *41:8 *41:10 0.497152
3 *41:7 *1423:A 1.4
4 *41:6 *41:8 1.4
5 *41:5 *41:7 0.124288
6 *41:4 *41:6 1.73996
7 *41:4 *41:5 1.4
8 *41:3 *41:4 0.745696
9 *41:2 *41:3 1.4
10 *41:1 *41:2 0.248576
11 *1417:A1 *41:1 1.4
*END

*D_NET *42 0.000778286

*CONN
*I *1416:A1 I *C 91.205 23.635 *L 0.00266 *D OAI221X1
*I *1423:Y O *C 91.4125 26.535 *L 0 *D INVX1

*CAP
1 *42:2 8.73651e-05
2 *42:3 8.73651e-05
3 *42:4 0.000224182
4 *42:5 0.000224182
5 *42:6 7.1453e-05
6 *42:7 7.1453e-05
7 *42:8 6.14308e-06
8 *42:9 6.14308e-06

*RES
1 *42:9 *1423:Y 1.4
2 *42:8 *42:9 0.0342863
3 *42:7 *42:8 1.4
4 *42:6 *42:7 0.372848
5 *42:5 *42:6 1.4
6 *42:4 *42:5 1.24288
7 *42:3 *42:4 1.4
8 *42:2 *42:3 0.497132
9 *42:1 *42:2 1.4
10 *1416:A1 *42:1 1.4
*END

*D_NET *43 0.00177126

*CONN
*I *1415:B1 I *C 88.305 21.315 *L 0.00274 *D OAI221X1
*I *1417:B0 I *C 93.815 26.245 *L 0.0028 *D OAI211X1
*I *1424:Y O *C 94.105 20.735 *L 0 *D OR2X1

*CAP
1 *43:1 2.24446e-05
2 *43:2 2.24446e-05
3 *43:3 0.000414984
4 *43:4 0.000414984
5 *43:5 0.000426359
6 *43:6 0.000359025
7 *43:7 6.73337e-05
8 *43:9 2.18413e-05
9 *43:10 2.18413e-05

*RES
1 *43:11 *1424:Y 1.4
2 *43:10 *43:11 1.4
3 *43:9 *43:10 0.124283
4 *43:7 *43:9 1.4
5 *43:6 *1417:B0 1.4
6 *43:5 *43:7 0.372865
7 *43:5 *43:6 1.98861
8 *43:4 *43:5 1.4
9 *43:3 *43:4 2.36138
10 *43:2 *43:3 1.4
11 *43:1 *43:2 0.124288
12 *1415:B1 *43:1 1.4
*END

*D_NET *44 0.00168993

*CONN
*I *1415:A0 I *C 89.465 21.025 *L 0.00262 *D OAI221X1
*I *1416:A0 I *C 90.625 23.635 *L 0.00262 *D OAI221X1
*I *1417:A0 I *C 92.945 26.245 *L 0.00267 *D OAI211X1
*I *1422:Y O *C 93.235 21.605 *L 0 *D NAND2XL

*CAP
1 *44:1 0.000179557
2 *44:2 0.000179557
3 *44:3 8.73651e-05
4 *44:4 0.000262095
5 *44:5 0.000196572
6 *44:6 2.24446e-05
7 *44:7 2.18413e-05
8 *44:8 0.000224358
9 *44:9 2.24446e-05
10 *44:10 0.000134667
11 *44:11 0.000224358
12 *44:13 0.000134667

*RES
1 *44:13 *1422:Y 1.4
2 *44:11 *1417:A0 1.4
3 *44:10 *44:13 0.745731
4 *44:9 *1416:A0 1.4
5 *44:8 *44:11 1.24288
6 *44:7 *44:10 1.4
7 *44:6 *44:9 0.124288
8 *44:5 *44:8 1.4
9 *44:5 *44:7 0.124283
10 *44:4 *44:6 1.4
11 *44:4 *44:5 0.994264
12 *44:3 *44:4 0.497132
13 *44:2 *44:3 1.4
14 *44:1 *44:2 0.994308
15 *1415:A0 *44:1 1.4
*END

*D_NET *45 0.000658858

*CONN
*I *1418:B I *C 85.985 21.025 *L 0.00167 *D NAND2XL
*I *1421:Y O *C 82.505 20.155 *L 0 *D OAI32X1

*CAP
1 *45:1 6.73337e-05
2 *45:2 6.73337e-05
3 *45:3 0.000262095
4 *45:4 0.000262095

*RES
1 *45:5 *1421:Y 1.4
2 *45:4 *45:5 1.4
3 *45:3 *45:4 1.4914
4 *45:2 *45:3 1.4
5 *45:1 *45:2 0.372865
6 *1418:B *45:1 1.4
*END

*D_NET *46 0.00151417

*CONN
*I *1416:B0 I *C 92.075 23.635 *L 0.00274 *D OAI221X1
*I *1420:Y O *C 89.175 17.835 *L 0 *D AOI22X1

*CAP
1 *46:1 4.48891e-05
2 *46:2 4.48891e-05
3 *46:3 0.000218413
4 *46:4 0.000218413
5 *46:5 0.000493781
6 *46:6 0.000493781

*RES
1 *46:6 *1420:Y 1.4
2 *46:5 *46:6 2.73435
3 *46:4 *46:5 1.4
4 *46:3 *46:4 1.24283
5 *46:2 *46:3 1.4
6 *46:1 *46:2 0.248577
7 *1416:B0 *46:1 1.4
*END

*D_NET *47 0.0015348

*CONN
*I *1417:C0 I *C 94.105 26.825 *L 0.00287 *D OAI211X1
*I *1419:Y O *C 93.25 18.6175 *L 0 *D OR4XL
*I *1416:C0 I *C 92.655 23.345 *L 0.00282 *D OAI221X1

*CAP
1 *47:1 0.00029134
2 *47:2 0.00029134
3 *47:3 6.55238e-05
4 *47:4 0.000109206
5 *47:5 0.000343247
6 *47:6 4.36826e-05
7 *47:7 0.000344408
8 *47:8 2.24446e-05
9 *47:9 1.16093e-06
10 *47:10 2.24446e-05

*RES
1 *47:10 *1416:C0 1.4
2 *47:9 *1419:Y 1.4
3 *47:8 *47:10 0.124288
4 *47:7 *47:9 0.00642871
5 *47:6 *47:8 1.4
6 *47:5 *47:7 1.90076
7 *47:4 *47:6 0.248566
8 *47:4 *47:5 1.4
9 *47:3 *47:4 0.372849
10 *47:2 *47:3 1.4
11 *47:1 *47:2 1.61575
12 *1417:C0 *47:1 1.4
*END

*D_NET *48 0.000263302

*CONN
*I *1415:C0 I *C 87.435 21.315 *L 0.00282 *D OAI221X1
*I *1418:Y O *C 85.985 21.605 *L 0 *D NAND2XL

*CAP
1 *48:2 0.000109206
2 *48:3 0.000109206
3 *48:4 2.24446e-05
4 *48:5 2.24446e-05

*RES
1 *48:5 *1418:Y 1.4
2 *48:4 *48:5 0.124288
3 *48:3 *48:4 1.4
4 *48:2 *48:3 0.621415
5 *48:1 *48:2 1.4
6 *1415:C0 *48:1 1.4
*END

*D_NET *49 0.000629391

*CONN
*I *1413:D I *C 95.265 28.855 *L 0.00183 *D SDFFQX1
*I *1417:Y O *C 94.395 25.665 *L 0 *D OAI211X1

*CAP
1 *49:2 4.76353e-05
2 *49:3 4.76353e-05
3 *49:4 0.000245219
4 *49:5 0.000245219
5 *49:6 2.18413e-05
6 *49:7 2.18413e-05

*RES
1 *49:8 *1417:Y 1.4
2 *49:7 *49:8 1.4
3 *49:6 *49:7 0.124283
4 *49:5 *49:6 1.4
5 *49:4 *49:5 1.36717
6 *49:3 *49:4 1.4
7 *49:2 *49:3 0.248565
8 *49:1 *49:2 1.4
9 *1413:D *49:1 1.4
*END

*D_NET *50 0.0023066

*CONN
*I *1414:D I *C 99.905 31.465 *L 0.00183 *D SDFFQX1
*I *1416:Y O *C 92.655 24.215 *L 0 *D OAI221X1

*CAP
1 *50:2 0.000595442
2 *50:3 0.000595442
3 *50:4 0.00055786
4 *50:5 0.00055786

*RES
1 *50:7 *1416:Y 1.4
2 *50:6 *50:7 1.4
3 *50:5 *50:6 1.4
4 *50:4 *50:5 3.1072
5 *50:3 *50:4 1.4
6 *50:2 *50:3 3.10707
7 *50:1 *50:2 1.4
8 *1414:D *50:1 1.4
*END

*D_NET *51 0.000620002

*CONN
*I *1412:D I *C 85.405 18.415 *L 0.00183 *D SDFFQX1
*I *1415:Y O *C 87.435 20.445 *L 0 *D OAI221X1

*CAP
1 *51:2 6.55238e-05
2 *51:3 6.55238e-05
3 *51:4 0.000157112
4 *51:5 0.000157112
5 *51:6 8.73651e-05
6 *51:7 8.73651e-05

*RES
1 *51:8 *1415:Y 1.4
2 *51:7 *51:8 1.4
3 *51:6 *51:7 0.497132
4 *51:5 *51:6 1.4
5 *51:4 *51:5 0.870019
6 *51:3 *51:4 1.4
7 *51:2 *51:3 0.372849
8 *51:1 *51:2 1.4
9 *1412:D *51:1 1.4
*END

*D_NET *52 0.000635572

*CONN
*I *1402:B0 I *C 97.875 23.345 *L 0.00262 *D OAI22X1
*I *1411:Y O *C 98.5375 21.315 *L 0 *D CLKINVX1
*I *1406:B I *C 99.325 23.635 *L 0.00167 *D NAND2XL

*CAP
1 *52:1 2.24446e-05
2 *52:2 2.24446e-05
3 *52:3 4.36826e-05
4 *52:4 4.36826e-05
5 *52:5 0.000179557
6 *52:6 4.48891e-05
7 *52:7 0.000141246
8 *52:8 6.55238e-05
9 *52:9 6.57858e-06
10 *52:10 6.55238e-05

*RES
1 *52:12 *1406:B 1.4
2 *52:10 *52:12 1.4
3 *52:9 *1411:Y 1.4
4 *52:8 *52:10 0.372849
5 *52:7 *52:9 0.0364294
6 *52:6 *52:8 1.4
7 *52:5 *52:7 0.745731
8 *52:5 *52:6 0.248577
9 *52:4 *52:5 1.4
10 *52:3 *52:4 0.248566
11 *52:2 *52:3 1.4
12 *52:1 *52:2 0.124288
13 *1402:B0 *52:1 1.4
*END

*D_NET *53 0.00127001

*CONN
*I *1401:A1N I *C 100.195 28.565 *L 0.00173 *D OAI2BB1XL
*I *1405:B I *C 100.195 26.535 *L 0.00165 *D OR2X1
*I *1409:Y O *C 98.165 26.825 *L 0 *D NAND2XL
*I *1402:B1 I *C 97.585 23.635 *L 0.00282 *D OAI22X1

*CAP
1 *53:1 0.000155881
2 *53:2 0.000155881
3 *53:4 9.52707e-05
4 *53:5 9.52707e-05
5 *53:6 2.22686e-05
6 *53:7 2.22686e-05
7 *53:8 7.1453e-05
8 *53:9 7.1453e-05
9 *53:10 0.000224006
10 *53:12 0.000224006
11 *53:13 4.36826e-05
12 *53:14 4.36826e-05
13 *53:15 2.24446e-05
14 *53:16 2.24446e-05

*RES
1 *53:16 *1402:B1 1.4
2 *53:15 *53:16 0.124288
3 *53:14 *53:15 1.4
4 *53:13 *53:14 0.248566
5 *53:12 *53:13 1.4
6 *53:10 *53:12 1.24288
7 *53:10 *1409:Y 1.4
8 *53:9 *53:10 1.4
9 *53:8 *53:9 0.372848
10 *53:7 *53:8 1.4
11 *53:6 *53:7 0.124288
12 *53:5 *53:6 1.4
13 *53:4 *53:5 0.497131
14 *53:2 *53:4 1.4
15 *53:2 *1405:B 1.4
16 *53:1 *53:2 0.870015
17 *1401:A1N *53:1 1.4
*END

*D_NET *54 0.00183322

*CONN
*I *1400:C0 I *C 101.065 18.415 *L 0.0017 *D OAI211XL
*I *1398:B I *C 99.615 15.805 *L 0.00171 *D NOR2XL
*I *1399:B I *C 101.065 23.635 *L 0.00171 *D NOR2XL
*I *1407:Y O *C 101.065 21.605 *L 0 *D NAND2XL

*CAP
1 *54:1 2.24446e-05
2 *54:2 2.24446e-05
3 *54:3 2.18413e-05
4 *54:4 0.000109206
5 *54:5 0.000381558
6 *54:6 8.73651e-05
7 *54:7 0.000381558
8 *54:8 0.000224446
9 *54:9 2.18413e-05
10 *54:10 0.000224446
11 *54:11 2.18413e-05
12 *54:13 0.000157112
13 *54:15 0.000157112

*RES
1 *54:15 *1407:Y 1.4
2 *54:13 *54:15 0.870019
3 *54:13 *1399:B 1.4
4 *54:11 *54:13 1.4
5 *54:10 *1398:B 1.4
6 *54:9 *54:11 0.124283
7 *54:8 *54:10 1.24288
8 *54:7 *54:9 1.4
9 *54:6 *54:8 1.4
10 *54:5 *54:7 2.1129
11 *54:4 *54:6 0.497132
12 *54:4 *54:5 1.4
13 *54:3 *54:4 0.124283
14 *54:2 *54:3 1.4
15 *54:1 *54:2 0.124288
16 *1400:C0 *54:1 1.4
*END

*D_NET *55 0.00102175

*CONN
*I *1403:B I *C 96.425 26.245 *L 0.00171 *D NOR2XL
*I *1402:A1 I *C 97.005 23.635 *L 0.00277 *D OAI22X1
*I *1406:Y O *C 99.325 23.055 *L 0 *D NAND2XL

*CAP
1 *55:2 2.38177e-05
2 *55:3 2.38177e-05
3 *55:4 0.000201913
4 *55:5 0.000201913
5 *55:6 6.55238e-05
6 *55:7 0.000240254
7 *55:8 0.00017473
8 *55:10 4.48891e-05
9 *55:12 4.48891e-05

*RES
1 *55:12 *1406:Y 1.4
2 *55:10 *55:12 0.248577
3 *55:9 *1402:A1 1.4
4 *55:8 *55:10 1.4
5 *55:7 *55:9 1.4
6 *55:7 *55:8 0.994264
7 *55:6 *55:7 0.372849
8 *55:5 *55:6 1.4
9 *55:4 *55:5 1.1186
10 *55:3 *55:4 1.4
11 *55:2 *55:3 0.124283
12 *55:1 *55:2 1.4
13 *1403:B *55:1 1.4
*END

*D_NET *56 0.0150343

*CONN
*I *1421:A0 I *C 81.635 21.025 *L 0.00257 *D OAI32X1
*I *1395:Y O *C 6.6075 5.365 *L 0 *D INVXL

*CAP
1 *56:1 0.00121201
2 *56:2 0.00121201
3 *56:3 0.00629912
4 *56:4 0.00629912
5 *56:5 6.01067e-06
6 *56:6 6.01067e-06

*RES
1 *56:6 *1395:Y 1.4
2 *56:5 *56:6 0.0364279
3 *56:4 *56:5 1.4
4 *56:3 *56:4 32.1896
5 *56:2 *56:3 1.4
6 *56:1 *56:2 6.71158
7 *1421:A0 *56:1 1.4
*END

*D_NET *57 0.00395623

*CONN
*I *1399:A I *C 100.775 23.345 *L 0.00162 *D NOR2XL
*I *1406:A I *C 99.905 23.635 *L 0.00157 *D NAND2XL
*I *1400:B0 I *C 100.775 18.415 *L 0.0017 *D OAI211XL
*I *1419:C I *C 94.685 18.415 *L 0.00167 *D OR4XL
*I *1410:Y O *C 98.8275 18.125 *L 0 *D CLKINVX1
*I *1408:B I *C 90.045 26.245 *L 0.00171 *D NOR2XL

*CAP
1 *57:2 6.55238e-05
2 *57:3 6.55238e-05
3 *57:4 0.000359113
4 *57:5 2.24446e-05
5 *57:6 0.000336669
6 *57:8 6.55238e-05
7 *57:9 6.55238e-05
8 *57:10 4.48891e-05
9 *57:11 4.48891e-05
10 *57:13 0.000152889
11 *57:14 0.000458667
12 *57:15 2.24446e-05
13 *57:16 0.000655238
14 *57:17 2.90232e-05
15 *57:19 0.000349461
16 *57:20 6.57858e-06
17 *57:22 0.000605915
18 *57:24 0.000605915

*RES
1 *57:24 *1408:B 1.4
2 *57:22 *57:24 3.35579
3 *57:20 *1410:Y 1.4
4 *57:19 *57:22 1.4
5 *57:18 *1419:C 1.4
6 *57:17 *57:20 0.0364294
7 *57:16 *57:19 1.98853
8 *57:16 *57:18 1.4
9 *57:15 *57:17 0.124288
10 *57:14 *57:16 1.73996
11 *57:14 *57:15 1.4
12 *57:13 *57:14 0.869981
13 *57:11 *57:13 1.4
14 *57:11 *1400:B0 1.4
15 *57:10 *57:11 0.248577
16 *57:9 *57:10 1.4
17 *57:8 *57:9 0.372849
18 *57:6 *57:8 1.4
19 *57:5 *1406:A 1.4
20 *57:4 *57:6 1.86433
21 *57:4 *57:5 0.124288
22 *57:3 *57:4 1.4
23 *57:2 *57:3 0.372849
24 *57:1 *57:2 1.4
25 *1399:A *57:1 1.4
*END

*D_NET *58 0.0147788

*CONN
*I *1392:B I *C 19.285 31.465 *L 0.00171 *D NOR2XL
*I *1393:AN I *C 74.965 28.855 *L 0.00174 *D NOR2BX1
*I *1403:Y O *C 96.135 25.955 *L 0 *D NOR2XL

*CAP
1 *58:4 0.00530127
2 *58:5 0.00530127
3 *58:6 0.000216067
4 *58:7 0.000454722
5 *58:9 0.000238655
6 *58:11 0.00163339
7 *58:13 0.00163339

*RES
1 *58:14 *1403:Y 1.4
2 *58:13 *58:14 1.4
3 *58:11 *58:13 9.07266
4 *58:10 *1393:AN 1.4
5 *58:9 *58:11 1.4
6 *58:8 *58:10 1.4
7 *58:7 *58:9 1.24283
8 *58:7 *58:8 1.4
9 *58:6 *58:7 1.11854
10 *58:5 *58:6 1.4
11 *58:4 *58:5 23.8634
12 *58:3 *58:4 1.4
13 *58:2 *58:3 1.4
14 *58:1 *58:2 1.4
15 *1392:B *58:1 1.4
*END

*D_NET *59 0.013456

*CONN
*I *1336:C I *C 30.305 33.785 *L 0.00285 *D NAND3X1
*I *1335:D I *C 30.595 31.465 *L 0.00168 *D NAND4BBXL
*I *958:B I *C 77.285 28.275 *L 0.00285 *D NAND3X1
*I *1404:Y O *C 80.765 26.825 *L 0 *D AND2X1
*I *1396:B I *C 80.475 10.875 *L 0.00165 *D OR2X1

*CAP
1 *59:1 0.000201499
2 *59:2 0.000201499
3 *59:3 2.86085e-05
4 *59:4 0.00455062
5 *59:5 0.00452201
6 *59:7 0.000264082
7 *59:9 0.000288089
8 *59:11 2.40074e-05
9 *59:12 0.000299183
10 *59:13 0.000299183
11 *59:14 8.90746e-05
12 *59:15 0.000245747
13 *59:17 0.000156672
14 *59:18 2.18413e-05
15 *59:19 2.18413e-05
16 *59:20 0.00107734
17 *59:21 0.00107734
18 *59:22 4.36826e-05
19 *59:23 4.36826e-05

*RES
1 *59:24 *1396:B 1.4
2 *59:23 *59:24 1.4
3 *59:22 *59:23 0.248566
4 *59:21 *59:22 1.4
5 *59:20 *59:21 5.96585
6 *59:19 *59:20 1.4
7 *59:18 *59:19 0.124283
8 *59:17 *59:18 1.4
9 *59:15 *59:17 0.870017
10 *59:15 *1404:Y 1.4
11 *59:14 *59:15 0.497151
12 *59:13 *59:14 1.4
13 *59:12 *59:13 1.49141
14 *59:11 *59:12 1.4
15 *59:9 *59:11 0.124283
16 *59:9 *958:B 1.4
17 *59:7 *59:9 1.36711
18 *59:6 *1335:D 1.4
19 *59:5 *59:7 1.4
20 *59:4 *59:6 1.4
21 *59:4 *59:5 20.0104
22 *59:3 *59:4 0.124289
23 *59:2 *59:3 1.4
24 *59:1 *59:2 0.994302
25 *1336:C *59:1 1.4
*END

*D_NET *60 0.00418679

*CONN
*I *1396:A I *C 79.605 10.585 *L 0.00173 *D OR2X1
*I *723:A I *C 80.775 10.6475 *L 0.00163 *D INVXL
*I *1364:B I *C 94.685 13.195 *L 0.00167 *D NAND2XL
*I *1398:Y O *C 99.905 15.515 *L 0 *D NOR2XL
*I *1397:AN I *C 101.065 15.805 *L 0.00174 *D NAND2BXL

*CAP
1 *60:1 2.24446e-05
2 *60:2 2.24446e-05
3 *60:3 8.73651e-05
4 *60:4 0.000196572
5 *60:5 0.000109206
6 *60:6 2.74753e-05
7 *60:7 0.000157112
8 *60:8 2.82492e-05
9 *60:9 0.000157112
10 *60:10 7.73951e-07
11 *60:11 0.000939175
12 *60:13 0.000939175
13 *60:14 6.73337e-05
14 *60:15 0.000179557
15 *60:16 0.000112223
16 *60:18 0.000393143
17 *60:19 0.000393143
18 *60:20 6.73337e-05
19 *60:21 8.97783e-05
20 *60:22 2.24446e-05
21 *60:24 8.73651e-05
22 *60:25 8.73651e-05

*RES
1 *60:26 *1397:AN 1.4
2 *60:25 *60:26 1.4
3 *60:24 *60:25 0.497132
4 *60:22 *60:24 1.4
5 *60:21 *1398:Y 1.4
6 *60:21 *60:22 0.124288
7 *60:20 *60:21 0.372865
8 *60:19 *60:20 1.4
9 *60:18 *60:19 2.23709
10 *60:16 *60:18 1.4
11 *60:15 *1364:B 1.4
12 *60:15 *60:16 0.621442
13 *60:14 *60:15 0.372865
14 *60:13 *60:14 1.4
15 *60:11 *60:13 5.34417
16 *60:10 *723:A 1.4
17 *60:9 *60:11 1.4
18 *60:8 *60:10 0.00428581
19 *60:7 *60:9 0.870019
20 *60:6 *60:8 0.152146
21 *60:5 *60:7 1.4
22 *60:4 *60:6 1.4
23 *60:4 *60:5 0.621415
24 *60:3 *60:4 0.497132
25 *60:2 *60:3 1.4
26 *60:1 *60:2 0.124288
27 *1396:A *60:1 1.4
*END

*D_NET *61 0.00320789

*CONN
*I *1380:C I *C 99.325 12.905 *L 0.00291 *D NOR3BX1
*I *1377:C I *C 96.425 12.905 *L 0.00163 *D NAND4BXL
*I *1360:A1 I *C 100.195 11.165 *L 0.00163 *D AO21X1
*I *1361:A2 I *C 95.555 10.875 *L 0.00279 *D OAI31X1
*I *1402:Y O *C 97.295 24.215 *L 0 *D OAI22X1

*CAP
1 *61:2 2.18413e-05
2 *61:3 2.18413e-05
3 *61:4 0.000112223
4 *61:5 0.000134667
5 *61:6 0.000240254
6 *61:7 2.24446e-05
7 *61:8 0.000240254
8 *61:9 4.36826e-05
9 *61:10 0.000157112
10 *61:11 4.36826e-05
11 *61:12 0.000987561
12 *61:13 4.48891e-05
13 *61:15 0.000875338
14 *61:17 6.55238e-05
15 *61:19 6.55238e-05
16 *61:20 6.55238e-05
17 *61:21 6.55238e-05

*RES
1 *61:23 *1402:Y 1.4
2 *61:22 *1361:A2 1.4
3 *61:21 *61:23 1.4
4 *61:20 *61:22 1.4
5 *61:19 *61:21 0.372849
6 *61:17 *61:20 0.372849
7 *61:15 *61:19 1.4
8 *61:14 *1360:A1 1.4
9 *61:13 *61:17 1.4
10 *61:12 *1377:C 1.4
11 *61:12 *61:15 4.84725
12 *61:11 *61:14 1.4
13 *61:10 *61:13 0.248577
14 *61:10 *61:12 0.621442
15 *61:9 *61:11 0.248566
16 *61:8 *61:10 1.4
17 *61:7 *61:9 1.4
18 *61:6 *61:8 1.36711
19 *61:5 *61:7 0.124288
20 *61:5 *61:6 1.4
21 *61:4 *61:5 0.621442
22 *61:3 *61:4 1.4
23 *61:2 *61:3 0.124283
24 *61:1 *61:2 1.4
25 *1380:C *61:1 1.4
*END

*D_NET *62 0.00249315

*CONN
*I *958:A I *C 77.575 28.565 *L 0.00264 *D NAND3X1
*I *1404:B I *C 81.925 26.245 *L 0.00172 *D AND2X1
*I *956:A I *C 79.025 26.535 *L 0.00267 *D NAND2X1
*I *1408:Y O *C 89.755 25.955 *L 0 *D NOR2XL

*CAP
1 *62:1 0.00019206
2 *62:2 0.00019206
3 *62:3 0.000128639
4 *62:4 0.000366815
5 *62:5 0.000881254
6 *62:6 2.22686e-05
7 *62:7 0.000643077
8 *62:9 2.22686e-05
9 *62:10 2.23566e-05
10 *62:13 2.23566e-05

*RES
1 *62:13 *1408:Y 1.4
2 *62:10 *62:13 0.124288
3 *62:9 *956:A 1.4
4 *62:8 *1404:B 1.4
5 *62:7 *62:10 1.4
6 *62:6 *62:9 0.124288
7 *62:5 *62:8 1.4
8 *62:5 *62:7 3.35563
9 *62:4 *62:6 1.4
10 *62:4 *62:5 1.24283
11 *62:3 *62:4 0.621427
12 *62:2 *62:3 1.4
13 *62:1 *62:2 0.994261
14 *958:A *62:1 1.4
*END

*D_NET *63 0.00231614

*CONN
*I *1365:C I *C 92.365 12.905 *L 0.00285 *D NAND3X1
*I *1366:B I *C 92.075 16.095 *L 0.00173 *D OR3X1
*I *1371:B0 I *C 92.075 7.685 *L 0.00282 *D OAI31X1
*I *1367:Q O *C 90.625 5.945 *L 0 *D SDFFQX1
*I *1359:SI I *C 94.685 5.365 *L 0.00172 *D SDFFQX1

*CAP
1 *63:2 2.18413e-05
2 *63:3 2.18413e-05
3 *63:4 0.000650893
4 *63:5 0.00024689
5 *63:6 0.00053867
6 *63:9 0.000179557
7 *63:10 0.000109206
8 *63:11 4.48891e-05
9 *63:12 0.000109206
10 *63:13 0.000196572
11 *63:15 0.000196572

*RES
1 *63:17 *1359:SI 1.4
2 *63:15 *63:17 1.4
3 *63:14 *1367:Q 1.4
4 *63:13 *63:15 1.11855
5 *63:12 *63:14 1.4
6 *63:11 *63:13 1.4
7 *63:10 *63:12 0.621415
8 *63:9 *63:11 0.248577
9 *63:9 *63:10 1.4
10 *63:6 *63:9 0.745731
11 *63:6 *1371:B0 1.4
12 *63:5 *1366:B 1.4
13 *63:4 *63:6 2.23719
14 *63:4 *63:5 1.36717
15 *63:3 *63:4 1.4
16 *63:2 *63:3 0.124283
17 *63:1 *63:2 1.4
18 *1365:C *63:1 1.4
*END

*D_NET *64 0.00137082

*CONN
*I *1432:A I *C 85.115 26.535 *L 0.00273 *D INVX1
*I *1429:B I *C 84.825 21.025 *L 0.00171 *D NOR2XL
*I *923:Y O *C 83.7475 26.535 *L 0 *D CLKINVX1

*CAP
1 *64:1 4.45373e-05
2 *64:2 4.45373e-05
3 *64:3 2.38177e-05
4 *64:4 0.000119088
5 *64:5 0.00047072
6 *64:6 9.52707e-05
7 *64:7 0.00047072
8 *64:8 4.45373e-05
9 *64:10 5.10643e-05
10 *64:11 6.52702e-06

*RES
1 *64:11 *923:Y 1.4
2 *64:10 *64:11 0.0364292
3 *64:8 *64:10 0.248576
4 *64:7 *1429:B 1.4
5 *64:6 *64:8 1.4
6 *64:5 *64:7 2.61006
7 *64:4 *64:6 0.497131
8 *64:4 *64:5 1.4
9 *64:3 *64:4 0.124283
10 *64:2 *64:3 1.4
11 *64:1 *64:2 0.248576
12 *1432:A *64:1 1.4
*END

*D_NET *65 0.00154313

*CONN
*I *1045:A0 I *C 89.175 85.985 *L 0.00156 *D AOI222XL
*I *738:Q O *C 87.725 84.245 *L 0 *D SDFFQX1
*I *738:SI I *C 81.055 83.665 *L 0.00172 *D SDFFQX1

*CAP
1 *65:2 2.12282e-05
2 *65:3 2.12282e-05
3 *65:4 0.000137803
4 *65:5 0.000137803
5 *65:6 8.49128e-05
6 *65:7 0.000573161
7 *65:8 1.96862e-05
8 *65:9 0.000488248
9 *65:10 1.96862e-05
10 *65:11 1.96862e-05
11 *65:13 1.96862e-05

*RES
1 *65:13 *738:SI 1.4
2 *65:11 *65:13 0.124283
3 *65:10 *738:Q 1.4
4 *65:9 *65:11 1.4
5 *65:8 *65:10 0.124283
6 *65:7 *65:9 2.85864
7 *65:7 *65:8 1.4
8 *65:6 *65:7 0.497155
9 *65:5 *65:6 1.4
10 *65:4 *65:5 0.869979
11 *65:3 *65:4 1.4
12 *65:2 *65:3 0.124289
13 *65:1 *65:2 1.4
14 *1045:A0 *65:1 1.4
*END

*D_NET *66 0.00167398

*CONN
*I *737:SI I *C 80.185 81.055 *L 0.00172 *D SDFFQX1
*I *737:Q O *C 73.515 80.475 *L 0 *D SDFFQX1
*I *1093:A0 I *C 78.735 78.445 *L 0.00264 *D AOI22X1

*CAP
1 *66:1 3.93724e-05
2 *66:2 3.93724e-05
3 *66:3 8.49128e-05
4 *66:4 8.49128e-05
5 *66:5 9.84309e-05
6 *66:6 0.000216548
7 *66:7 0.000454457
8 *66:8 0.000118117
9 *66:9 0.000454457
10 *66:10 2.12282e-05
11 *66:11 2.04704e-05
12 *66:12 2.12282e-05
13 *66:13 2.04704e-05

*RES
1 *66:14 *1093:A0 1.4
2 *66:13 *737:Q 1.4
3 *66:12 *66:14 1.4
4 *66:11 *66:13 0.124288
5 *66:10 *66:12 0.124289
6 *66:9 *66:11 1.4
7 *66:8 *66:10 1.4
8 *66:7 *66:9 2.36149
9 *66:6 *66:8 0.745696
10 *66:6 *66:7 1.4
11 *66:5 *66:6 0.621413
12 *66:4 *66:5 1.4
13 *66:3 *66:4 0.497155
14 *66:2 *66:3 1.4
15 *66:1 *66:2 0.248565
16 *737:SI *66:1 1.4
*END

*D_NET *67 0.0020556

*CONN
*I *1041:B0 I *C 78.3325 57.4925 *L 0.00163 *D AOI222XL
*I *736:Q O *C 76.995 54.375 *L 0 *D SDFFQX1
*I *736:SI I *C 70.325 54.955 *L 0.00172 *D SDFFQX1

*CAP
1 *67:1 8.85743e-06
2 *67:2 0.000166681
3 *67:3 0.000157823
4 *67:4 0.000134762
5 *67:5 0.000134762
6 *67:6 4.81128e-05
7 *67:7 9.62255e-05
8 *67:8 0.000630133
9 *67:9 4.81128e-05
10 *67:10 0.000630133

*RES
1 *67:12 *736:SI 1.4
2 *67:10 *67:12 1.4
3 *67:9 *736:Q 1.4
4 *67:8 *67:10 2.85864
5 *67:7 *67:9 0.248578
6 *67:7 *67:8 1.4
7 *67:6 *67:7 0.248578
8 *67:5 *67:6 1.4
9 *67:4 *67:5 0.621444
10 *67:3 *67:4 1.4
11 *67:2 *67:3 0.839992
12 *67:1 *67:2 0.0471424
13 *1041:B0 *67:1 1.4
*END

*D_NET *68 0.00170228

*CONN
*I *735:SI I *C 38.135 83.665 *L 0.00172 *D SDFFQX1
*I *1086:A0 I *C 34.655 81.055 *L 0.00264 *D AOI22X1
*I *735:Q O *C 31.465 84.245 *L 0 *D SDFFQX1

*CAP
1 *68:1 4.11354e-05
2 *68:2 4.11354e-05
3 *68:3 0.000304571
4 *68:4 0.000304571
5 *68:5 0.000185109
6 *68:6 4.11354e-05
7 *68:7 0.000143974
8 *68:8 0.00027919
9 *68:10 0.00027919
10 *68:11 4.11354e-05
11 *68:12 4.11354e-05

*RES
1 *68:12 *735:Q 1.4
2 *68:11 *68:12 0.248565
3 *68:10 *68:11 1.4
4 *68:8 *68:10 1.36711
5 *68:7 *1086:A0 1.4
6 *68:6 *68:8 1.4
7 *68:5 *68:7 0.869979
8 *68:5 *68:6 0.248565
9 *68:4 *68:5 1.4
10 *68:3 *68:4 1.49139
11 *68:2 *68:3 1.4
12 *68:1 *68:2 0.248565
13 *735:SI *68:1 1.4
*END

*D_NET *69 0.00161293

*CONN
*I *1048:A0 I *C 78.155 44.225 *L 0.00156 *D AOI222XL
*I *734:SI I *C 78.735 41.905 *L 0.00172 *D SDFFQX1
*I *734:Q O *C 85.405 42.485 *L 0 *D SDFFQX1

*CAP
1 *69:1 0.000120037
2 *69:2 0.000120037
3 *69:3 4.95454e-05
4 *69:4 0.000597352
5 *69:5 0.000547806
6 *69:6 6.68059e-05
7 *69:7 2.22686e-05
8 *69:8 6.68059e-05
9 *69:9 2.22686e-05

*RES
1 *69:9 *734:Q 1.4
2 *69:8 *734:SI 1.4
3 *69:7 *69:9 0.124288
4 *69:6 *69:8 0.372863
5 *69:5 *69:7 1.4
6 *69:4 *69:6 1.4
7 *69:4 *69:5 2.8585
8 *69:3 *69:4 0.248568
9 *69:2 *69:3 1.4
10 *69:1 *69:2 0.621413
11 *1048:A0 *69:1 1.4
*END

*D_NET *70 0.00186419

*CONN
*I *733:SI I *C 48.575 81.055 *L 0.00172 *D SDFFQX1
*I *733:Q O *C 41.905 80.475 *L 0 *D SDFFQX1
*I *1114:A0 I *C 47.125 78.445 *L 0.00264 *D AOI22X1

*CAP
1 *70:1 2.05677e-05
2 *70:2 2.05677e-05
3 *70:3 0.000228428
4 *70:4 0.000228428
5 *70:5 8.22708e-05
6 *70:6 0.000205677
7 *70:7 0.000355333
8 *70:8 0.000123406
9 *70:9 0.000355333
10 *70:10 0.000101524
11 *70:11 2.05677e-05
12 *70:12 0.000101524
13 *70:13 2.05677e-05

*RES
1 *70:14 *1114:A0 1.4
2 *70:13 *733:Q 1.4
3 *70:12 *70:14 1.4
4 *70:11 *70:13 0.124283
5 *70:10 *70:12 0.497132
6 *70:9 *70:11 1.4
7 *70:8 *70:10 1.4
8 *70:7 *70:9 1.73996
9 *70:6 *70:8 0.745696
10 *70:6 *70:7 1.4
11 *70:5 *70:6 0.497131
12 *70:4 *70:5 1.4
13 *70:3 *70:4 1.11855
14 *70:2 *70:3 1.4
15 *70:1 *70:2 0.124283
16 *733:SI *70:1 1.4
*END

*D_NET *71 0.00217574

*CONN
*I *732:SI I *C 82.215 62.785 *L 0.00172 *D SDFFQX1
*I *732:Q O *C 88.885 63.365 *L 0 *D SDFFQX1
*I *1052:A0 I *C 88.595 68.295 *L 0.00156 *D AOI222XL

*CAP
1 *71:1 4.67028e-05
2 *71:2 4.67028e-05
3 *71:3 0.000481938
4 *71:4 0.000481938
5 *71:5 9.34056e-05
6 *71:6 0.00049038
7 *71:7 4.58988e-05
8 *71:8 0.000396974
9 *71:9 4.58988e-05
10 *71:10 2.29494e-05
11 *71:12 2.29494e-05

*RES
1 *71:14 *1052:A0 1.4
2 *71:12 *71:14 1.4
3 *71:11 *732:Q 1.4
4 *71:10 *71:12 0.124289
5 *71:9 *71:11 1.4
6 *71:8 *71:10 1.4
7 *71:7 *71:9 0.248578
8 *71:6 *71:8 2.11284
9 *71:6 *71:7 1.4
10 *71:5 *71:6 0.497138
11 *71:4 *71:5 1.4
12 *71:3 *71:4 2.61006
13 *71:2 *71:3 1.4
14 *71:1 *71:2 0.248569
15 *732:SI *71:1 1.4
*END

*D_NET *72 0.00166278

*CONN
*I *1047:A0 I *C 26.535 80.765 *L 0.00156 *D AOI222XL
*I *731:SI I *C 29.725 83.665 *L 0.00172 *D SDFFQX1
*I *731:Q O *C 23.055 84.245 *L 0 *D SDFFQX1

*CAP
1 *72:2 5.07618e-05
2 *72:3 5.07618e-05
3 *72:4 0.000205677
4 *72:5 0.000246812
5 *72:6 4.11354e-05
6 *72:7 0.000228428
7 *72:8 0.000305386
8 *72:9 0.000228428
9 *72:10 0.000305386

*RES
1 *72:12 *731:Q 1.4
2 *72:11 *731:SI 1.4
3 *72:10 *72:12 1.4
4 *72:9 *72:11 1.4
5 *72:8 *72:10 1.73996
6 *72:7 *72:9 1.11855
7 *72:6 *72:8 1.4
8 *72:5 *72:7 1.4
9 *72:5 *72:6 0.248565
10 *72:4 *72:5 1.24283
11 *72:3 *72:4 1.4
12 *72:2 *72:3 0.248566
13 *72:1 *72:2 1.4
14 *1047:A0 *72:1 1.4
*END

*D_NET *73 0.00184812

*CONN
*I *730:SI I *C 29.145 68.005 *L 0.00172 *D SDFFQX1
*I *1070:A0 I *C 27.405 70.615 *L 0.00264 *D AOI22X1
*I *730:Q O *C 22.475 68.585 *L 0 *D SDFFQX1

*CAP
1 *73:1 5.03747e-05
2 *73:2 5.03747e-05
3 *73:3 0.000169623
4 *73:4 0.000169623
5 *73:5 0.000125937
6 *73:6 0.000277061
7 *73:7 0.000151124
8 *73:8 0.000403375
9 *73:10 0.000403375
10 *73:11 2.36274e-05
11 *73:12 2.36274e-05

*RES
1 *73:12 *730:Q 1.4
2 *73:11 *73:12 0.124283
3 *73:10 *73:11 1.4
4 *73:8 *73:10 2.11288
5 *73:7 *1070:A0 1.4
6 *73:6 *73:8 1.4
7 *73:6 *73:7 0.745732
8 *73:5 *73:6 0.621444
9 *73:4 *73:5 1.4
10 *73:3 *73:4 0.745697
11 *73:2 *73:3 1.4
12 *73:1 *73:2 0.248578
13 *730:SI *73:1 1.4
*END

*D_NET *74 0.00193428

*CONN
*I *729:SI I *C 30.305 47.125 *L 0.00172 *D SDFFQX1
*I *1113:A0 I *C 27.985 49.735 *L 0.00264 *D AOI22X1
*I *729:Q O *C 23.635 47.705 *L 0 *D SDFFQX1

*CAP
1 *74:1 5.03749e-05
2 *74:2 5.03749e-05
3 *74:3 0.000228868
4 *74:4 0.000228868
5 *74:5 7.55623e-05
6 *74:6 0.000277062
7 *74:7 0.000201499
8 *74:8 0.000387399
9 *74:10 0.000387399
10 *74:11 2.34394e-05
11 *74:12 2.34394e-05

*RES
1 *74:12 *729:Q 1.4
2 *74:11 *74:12 0.124283
3 *74:10 *74:11 1.4
4 *74:8 *74:10 1.86433
5 *74:7 *1113:A0 1.4
6 *74:6 *74:8 1.4
7 *74:6 *74:7 0.994302
8 *74:5 *74:6 0.372863
9 *74:4 *74:5 1.4
10 *74:3 *74:4 0.99431
11 *74:2 *74:3 1.4
12 *74:1 *74:2 0.248575
13 *729:SI *74:1 1.4
*END

*D_NET *75 0.00175875

*CONN
*I *1155:A I *C 56.695 41.905 *L 0.00157 *D NAND2XL
*I *728:Q O *C 56.985 43.935 *L 0 *D SDFFQX1
*I *728:SI I *C 63.655 44.515 *L 0.00172 *D SDFFQX1

*CAP
1 *75:1 0.000168052
2 *75:2 0.000168052
3 *75:3 2.76379e-05
4 *75:4 2.76379e-05
5 *75:5 4.80149e-05
6 *75:6 4.80149e-05
7 *75:8 0.000635671
8 *75:9 0.000635671

*RES
1 *75:10 *728:SI 1.4
2 *75:9 *75:10 1.4
3 *75:8 *75:9 2.85863
4 *75:6 *75:8 1.4
5 *75:5 *728:Q 1.4
6 *75:5 *75:6 0.248565
7 *75:4 *75:5 1.4
8 *75:3 *75:4 0.124288
9 *75:2 *75:3 1.4
10 *75:1 *75:2 0.869979
11 *1155:A *75:1 1.4
*END

*D_NET *76 0.00189048

*CONN
*I *727:SI I *C 58.145 13.195 *L 0.00172 *D SDFFQX1
*I *1139:A1 I *C 54.665 16.385 *L 0.00171 *D AOI22XL
*I *727:Q O *C 51.475 12.615 *L 0 *D SDFFQX1

*CAP
1 *76:1 6.3506e-05
2 *76:2 6.3506e-05
3 *76:3 0.000277536
4 *76:4 0.000277536
5 *76:5 0.000232855
6 *76:6 0.000169349
7 *76:7 6.3506e-05
8 *76:8 2.52305e-05
9 *76:9 0.000303796
10 *76:10 2.52305e-05
11 *76:11 0.000303796
12 *76:13 4.23137e-05
13 *76:15 4.23137e-05

*RES
1 *76:15 *727:Q 1.4
2 *76:13 *76:15 0.248576
3 *76:12 *1139:A1 1.4
4 *76:11 *76:13 1.4
5 *76:10 *76:12 1.4
6 *76:9 *76:11 1.49139
7 *76:8 *76:10 0.124283
8 *76:7 *76:9 1.4
9 *76:6 *76:8 1.4
10 *76:5 *76:7 0.372866
11 *76:5 *76:6 0.99431
12 *76:4 *76:5 1.4
13 *76:3 *76:4 1.36711
14 *76:2 *76:3 1.4
15 *76:1 *76:2 0.372866
16 *727:SI *76:1 1.4
*END

*D_NET *77 0.00190299

*CONN
*I *726:SI I *C 62.785 21.025 *L 0.00172 *D SDFFQX1
*I *726:Q O *C 56.115 21.605 *L 0 *D SDFFQX1
*I *1132:A0 I *C 53.795 23.345 *L 0.00271 *D OAI21X1

*CAP
1 *77:1 4.23373e-05
2 *77:2 4.23373e-05
3 *77:3 0.000580302
4 *77:4 0.000782147
5 *77:6 0.000201844
6 *77:8 0.000127012
7 *77:9 0.000127012

*RES
1 *77:9 *1132:A0 1.4
2 *77:8 *77:9 0.745732
3 *77:6 *77:8 1.4
4 *77:5 *726:Q 1.4
5 *77:4 *77:6 0.994261
6 *77:4 *77:5 1.4
7 *77:3 *77:4 2.8585
8 *77:2 *77:3 1.4
9 *77:1 *77:2 0.248578
10 *726:SI *77:1 1.4
*END

*D_NET *78 0.00134516

*CONN
*I *725:SI I *C 27.985 10.585 *L 0.00172 *D SDFFQX1
*I *725:Q O *C 21.315 11.165 *L 0 *D SDFFQX1
*I *1178:A0 I *C 20.735 10.585 *L 0.00264 *D AOI22X1

*CAP
1 *78:1 2.11568e-05
2 *78:2 2.11568e-05
3 *78:3 0.000525858
4 *78:4 0.000569396
5 *78:5 6.1521e-05
6 *78:6 4.35373e-05
7 *78:7 6.1521e-05
8 *78:8 2.0507e-05
9 *78:10 2.0507e-05

*RES
1 *78:10 *1178:A0 1.4
2 *78:8 *78:10 0.124283
3 *78:7 *725:Q 1.4
4 *78:6 *78:8 1.4
5 *78:5 *78:7 0.37285
6 *78:4 *78:6 0.248578
7 *78:4 *78:5 1.4
8 *78:3 *78:4 2.8586
9 *78:2 *78:3 1.4
10 *78:1 *78:2 0.124288
11 *725:SI *78:1 1.4
*END

*D_NET *79 0.001645

*CONN
*I *724:SI I *C 32.915 15.805 *L 0.00172 *D SDFFQX1
*I *1353:B0 I *C 31.175 13.485 *L 0.00171 *D AO22XL
*I *724:Q O *C 26.245 16.385 *L 0 *D SDFFQX1

*CAP
1 *79:1 2.11568e-05
2 *79:2 2.11568e-05
3 *79:3 0.000153854
4 *79:4 0.000153854
5 *79:5 0.000169255
6 *79:6 2.11568e-05
7 *79:7 0.000148098
8 *79:8 0.00043592
9 *79:10 0.00043592
10 *79:11 4.23137e-05
11 *79:12 4.23137e-05

*RES
1 *79:12 *724:Q 1.4
2 *79:11 *79:12 0.248576
3 *79:10 *79:11 1.4
4 *79:8 *79:10 2.11281
5 *79:7 *1353:B0 1.4
6 *79:6 *79:8 1.4
7 *79:5 *79:7 0.870017
8 *79:5 *79:6 0.124288
9 *79:4 *79:5 1.4
10 *79:3 *79:4 0.745696
11 *79:2 *79:3 1.4
12 *79:1 *79:2 0.124288
13 *724:SI *79:1 1.4
*END

*D_NET *80 0.00124402

*CONN
*I *753:D I *C 98.165 86.275 *L 0.00183 *D SDFFQX1
*I *753:Q O *C 92.945 85.695 *L 0 *D SDFFQX1
*I *1045:B0 I *C 90.8025 86.3475 *L 0.00163 *D AOI222XL

*CAP
1 *80:2 0.000212282
2 *80:3 0.000212282
3 *80:4 3.93724e-05
4 *80:5 3.93724e-05
5 *80:6 0.000169826
6 *80:7 0.000318423
7 *80:9 0.000148597
8 *80:11 4.44636e-05
9 *80:12 5.19308e-05
10 *80:13 7.46717e-06

*RES
1 *80:13 *1045:B0 1.4
2 *80:12 *80:13 0.0471417
3 *80:11 *80:12 0.280707
4 *80:9 *80:11 1.4
5 *80:8 *753:Q 1.4
6 *80:7 *80:9 0.870021
7 *80:7 *80:8 1.4
8 *80:6 *80:7 0.99431
9 *80:5 *80:6 1.4
10 *80:4 *80:5 0.248565
11 *80:3 *80:4 1.4
12 *80:2 *80:3 1.24289
13 *80:1 *80:2 1.4
14 *753:D *80:1 1.4
*END

*D_NET *81 0.00171296

*CONN
*I *752:D I *C 99.905 81.055 *L 0.00183 *D SDFFQX1
*I *752:Q O *C 94.685 80.475 *L 0 *D SDFFQX1
*I *1099:A0 I *C 90.625 78.445 *L 0.00264 *D AOI22X1

*CAP
1 *81:2 0.000382107
2 *81:3 0.000382107
3 *81:4 3.93724e-05
4 *81:5 0.000177176
5 *81:7 0.000137803
6 *81:8 0.000297195
7 *81:9 0.000297195

*RES
1 *81:10 *1099:A0 1.4
2 *81:9 *81:10 1.4
3 *81:8 *81:9 1.74004
4 *81:7 *81:8 1.4
5 *81:5 *81:7 0.869979
6 *81:5 *752:Q 1.4
7 *81:4 *81:5 0.248565
8 *81:3 *81:4 1.4
9 *81:2 *81:3 2.2372
10 *81:1 *81:2 1.4
11 *752:D *81:1 1.4
*END

*D_NET *82 0.00138661

*CONN
*I *751:D I *C 92.075 60.175 *L 0.00183 *D SDFFQX1
*I *1078:A0 I *C 87.725 57.565 *L 0.00264 *D AOI22X1
*I *751:Q O *C 86.855 59.595 *L 0 *D SDFFQX1

*CAP
1 *82:1 2.33514e-05
2 *82:2 2.33514e-05
3 *82:3 0.000344241
4 *82:4 0.000344241
5 *82:5 9.34056e-05
6 *82:6 0.000233514
7 *82:7 6.88482e-05
8 *82:8 0.000140108
9 *82:9 6.88482e-05
10 *82:11 2.33514e-05
11 *82:12 2.33514e-05

*RES
1 *82:12 *751:Q 1.4
2 *82:11 *82:12 0.124285
3 *82:9 *82:11 1.4
4 *82:8 *1078:A0 1.4
5 *82:7 *82:9 0.372866
6 *82:6 *82:8 0.745707
7 *82:6 *82:7 1.4
8 *82:5 *82:6 0.497138
9 *82:4 *82:5 1.4
10 *82:3 *82:4 1.86433
11 *82:2 *82:3 1.4
12 *82:1 *82:2 0.124285
13 *751:D *82:1 1.4
*END

*D_NET *83 0.00184757

*CONN
*I *1053:A0 I *C 39.295 86.275 *L 0.00264 *D AOI22X1
*I *750:D I *C 38.425 91.495 *L 0.00183 *D SDFFQX1
*I *750:Q O *C 33.205 90.915 *L 0 *D SDFFQX1

*CAP
1 *83:1 0.000308515
2 *83:2 0.000308515
3 *83:3 7.61427e-05
4 *83:4 0.000532999
5 *83:5 6.17031e-05
6 *83:6 0.000456856
7 *83:7 6.17031e-05
8 *83:8 2.05677e-05
9 *83:10 2.05677e-05

*RES
1 *83:10 *750:Q 1.4
2 *83:8 *83:10 0.124283
3 *83:7 *750:D 1.4
4 *83:6 *83:8 1.4
5 *83:5 *83:7 0.372848
6 *83:4 *83:6 2.23709
7 *83:4 *83:5 1.4
8 *83:3 *83:4 0.372849
9 *83:2 *83:3 1.4
10 *83:1 *83:2 1.86424
11 *1053:A0 *83:1 1.4
*END

*D_NET *84 0.00148406

*CONN
*I *1068:A0 I *C 89.465 47.125 *L 0.00264 *D AOI22X1
*I *749:Q O *C 86.565 43.935 *L 0 *D SDFFQX1
*I *749:D I *C 91.785 44.515 *L 0.00183 *D SDFFQX1

*CAP
1 *84:2 2.38177e-05
2 *84:3 2.38177e-05
3 *84:4 0.000155881
4 *84:5 0.000200418
5 *84:6 0.000214359
6 *84:7 4.45373e-05
7 *84:8 0.000214359
8 *84:9 0.000214359
9 *84:10 8.90746e-05
10 *84:11 0.000214359
11 *84:12 8.90746e-05

*RES
1 *84:13 *749:D 1.4
2 *84:12 *749:Q 1.4
3 *84:11 *84:13 1.4
4 *84:10 *84:12 0.497151
5 *84:9 *84:11 1.11854
6 *84:8 *84:10 1.4
7 *84:7 *84:9 1.4
8 *84:6 *84:8 1.11854
9 *84:5 *84:7 0.248576
10 *84:5 *84:6 1.4
11 *84:4 *84:5 0.870015
12 *84:3 *84:4 1.4
13 *84:2 *84:3 0.124283
14 *84:1 *84:2 1.4
15 *1068:A0 *84:1 1.4
*END

*D_NET *85 0.00155

*CONN
*I *1112:A0 I *C 44.515 86.275 *L 0.00264 *D AOI22X1
*I *748:D I *C 45.675 88.885 *L 0.00183 *D SDFFQX1
*I *748:Q O *C 40.455 89.465 *L 0 *D SDFFQX1

*CAP
1 *85:2 5.07618e-05
2 *85:3 5.07618e-05
3 *85:4 0.000185109
4 *85:5 0.000246812
5 *85:6 6.17031e-05
6 *85:7 5.07618e-05
7 *85:8 0.000406094
8 *85:9 5.07618e-05
9 *85:10 0.000406094
10 *85:12 2.05677e-05
11 *85:14 2.05677e-05

*RES
1 *85:14 *748:Q 1.4
2 *85:12 *85:14 0.124283
3 *85:11 *748:D 1.4
4 *85:10 *85:12 1.4
5 *85:9 *85:11 1.4
6 *85:8 *85:10 1.98853
7 *85:7 *85:9 0.248566
8 *85:6 *85:8 1.4
9 *85:5 *85:7 1.4
10 *85:5 *85:6 0.372848
11 *85:4 *85:5 1.11854
12 *85:3 *85:4 1.4
13 *85:2 *85:3 0.248566
14 *85:1 *85:2 1.4
15 *1112:A0 *85:1 1.4
*END

*D_NET *86 0.00157101

*CONN
*I *747:D I *C 84.245 60.175 *L 0.00183 *D SDFFQX1
*I *1075:A0 I *C 80.185 62.785 *L 0.00264 *D AOI22X1
*I *747:Q O *C 79.025 59.595 *L 0 *D SDFFQX1

*CAP
1 *86:1 4.67028e-05
2 *86:2 4.67028e-05
3 *86:3 0.000252444
4 *86:4 0.000252444
5 *86:5 0.000256865
6 *86:6 0.00016346
7 *86:7 9.34056e-05
8 *86:8 6.88482e-05
9 *86:9 0.000160646
10 *86:10 6.88482e-05
11 *86:11 0.000160646

*RES
1 *86:13 *747:Q 1.4
2 *86:12 *1075:A0 1.4
3 *86:11 *86:13 1.4
4 *86:10 *86:12 1.4
5 *86:9 *86:11 0.870021
6 *86:8 *86:10 0.372866
7 *86:7 *86:9 1.4
8 *86:6 *86:8 1.4
9 *86:5 *86:7 0.497138
10 *86:5 *86:6 0.869992
11 *86:4 *86:5 1.4
12 *86:3 *86:4 1.36718
13 *86:2 *86:3 1.4
14 *86:1 *86:2 0.248569
15 *747:D *86:1 1.4
*END

*D_NET *87 0.00135755

*CONN
*I *746:D I *C 9.425 88.885 *L 0.00183 *D SDFFQX1
*I *1345:A0 I *C 13.195 89.175 *L 0.00264 *D AOI221X1
*I *746:Q O *C 4.205 89.465 *L 0 *D SDFFQX1

*CAP
1 *87:1 1.97144e-05
2 *87:2 1.97144e-05
3 *87:3 0.000639347
4 *87:4 0.000268113
5 *87:5 0.000371234
6 *87:7 1.97144e-05
7 *87:9 1.97144e-05

*RES
1 *87:9 *746:Q 1.4
2 *87:7 *87:9 0.124288
3 *87:6 *1345:A0 1.4
4 *87:5 *87:7 1.4
5 *87:4 *87:6 1.4
6 *87:3 *87:5 2.2371
7 *87:3 *87:4 1.61568
8 *87:2 *87:3 1.4
9 *87:1 *87:2 0.124288
10 *746:D *87:1 1.4
*END

*D_NET *88 0.00244742

*CONN
*I *1214:A I *C 34.085 57.6275 *L 0.00163 *D INVXL
*I *745:Q O *C 37.555 64.815 *L 0 *D SDFFQX1
*I *745:D I *C 32.335 65.395 *L 0.00183 *D SDFFQX1

*CAP
1 *88:1 8.68529e-07
2 *88:2 6.51397e-06
3 *88:3 5.64544e-06
4 *88:4 2.82705e-05
5 *88:5 2.82705e-05
6 *88:6 0.000629684
7 *88:7 0.000680058
8 *88:8 0.000310975
9 *88:9 5.03747e-05
10 *88:10 0.000310975
11 *88:11 0.000197893
12 *88:13 0.000197893

*RES
1 *88:15 *745:D 1.4
2 *88:13 *88:15 1.4
3 *88:12 *745:Q 1.4
4 *88:11 *88:13 0.86998
5 *88:10 *88:12 1.4
6 *88:9 *88:11 1.4
7 *88:8 *88:10 1.36711
8 *88:7 *88:9 0.248578
9 *88:7 *88:8 1.4
10 *88:6 *88:7 3.10722
11 *88:5 *88:6 1.4
12 *88:4 *88:5 0.124283
13 *88:3 *88:4 1.4
14 *88:2 *88:3 0.0278578
15 *88:1 *88:2 0.00428582
16 *1214:A *88:1 1.4
*END

*D_NET *89 0.00206629

*CONN
*I *1064:A0 I *C 13.775 60.175 *L 0.00264 *D AOI22X1
*I *744:D I *C 9.425 62.785 *L 0.00183 *D SDFFQX1
*I *744:Q O *C 4.205 63.365 *L 0 *D SDFFQX1

*CAP
1 *89:2 2.20927e-05
2 *89:3 2.20927e-05
3 *89:4 0.000212647
4 *89:5 0.000212647
5 *89:6 0.000353482
6 *89:7 0.00075115
7 *89:9 0.000397668
8 *89:11 4.72548e-05
9 *89:12 4.72548e-05

*RES
1 *89:12 *744:Q 1.4
2 *89:11 *89:12 0.248565
3 *89:9 *89:11 1.4
4 *89:8 *744:D 1.4
5 *89:7 *89:9 2.2372
6 *89:7 *89:8 1.4
7 *89:6 *89:7 1.98862
8 *89:5 *89:6 1.4
9 *89:4 *89:5 1.11854
10 *89:3 *89:4 1.4
11 *89:2 *89:3 0.124289
12 *89:1 *89:2 1.4
13 *1064:A0 *89:1 1.4
*END

*D_NET *90 0.00168788

*CONN
*I *743:D I *C 50.895 57.565 *L 0.00183 *D SDFFQX1
*I *743:Q O *C 56.115 58.145 *L 0 *D SDFFQX1
*I *1089:A0 I *C 56.695 57.565 *L 0.00264 *D AOI22X1

*CAP
1 *90:1 7.5562e-05
2 *90:2 7.5562e-05
3 *90:3 0.000497078
4 *90:4 0.000497078
5 *90:5 2.40564e-05
6 *90:6 0.000144338
7 *90:8 0.000120282
8 *90:9 5.47942e-05
9 *90:10 5.47942e-05
10 *90:11 7.21692e-05
11 *90:12 7.21692e-05

*RES
1 *90:12 *1089:A0 1.4
2 *90:11 *90:12 0.372866
3 *90:10 *90:11 1.4
4 *90:9 *90:10 0.248577
5 *90:8 *90:9 1.4
6 *90:6 *90:8 0.621444
7 *90:6 *743:Q 1.4
8 *90:5 *90:6 0.124289
9 *90:4 *90:5 1.4
10 *90:3 *90:4 2.23717
11 *90:2 *90:3 1.4
12 *90:1 *90:2 0.372866
13 *743:D *90:1 1.4
*END

*D_NET *91 0.00151552

*CONN
*I *742:D I *C 52.055 18.415 *L 0.00183 *D SDFFQX1
*I *1157:A I *C 50.605 21.025 *L 0.00157 *D NAND2XL
*I *742:Q O *C 46.835 17.835 *L 0 *D SDFFQX1

*CAP
1 *91:1 4.23137e-05
2 *91:2 4.23137e-05
3 *91:3 0.000128212
4 *91:4 0.000128212
5 *91:5 2.11568e-05
6 *91:6 0.000232725
7 *91:7 0.000211568
8 *91:8 0.000333351
9 *91:10 0.000333351
10 *91:11 2.11568e-05
11 *91:12 2.11568e-05

*RES
1 *91:12 *742:Q 1.4
2 *91:11 *91:12 0.124288
3 *91:10 *91:11 1.4
4 *91:8 *91:10 1.61567
5 *91:7 *1157:A 1.4
6 *91:6 *91:8 1.4
7 *91:6 *91:7 1.24288
8 *91:5 *91:6 0.124288
9 *91:4 *91:5 1.4
10 *91:3 *91:4 0.621413
11 *91:2 *91:3 1.4
12 *91:1 *91:2 0.248576
13 *742:D *91:1 1.4
*END

*D_NET *92 0.00171099

*CONN
*I *1122:A0 I *C 54.665 21.315 *L 0.00271 *D OAI21X1
*I *741:Q O *C 56.115 17.835 *L 0 *D SDFFQX1
*I *741:D I *C 61.335 18.415 *L 0.00183 *D SDFFQX1

*CAP
1 *92:2 2.52305e-05
2 *92:3 2.52305e-05
3 *92:4 0.000190518
4 *92:5 0.000190518
5 *92:6 0.000100922
6 *92:7 0.000555072
7 *92:8 0.00045415
8 *92:9 6.3506e-05
9 *92:10 2.11687e-05
10 *92:11 6.3506e-05
11 *92:12 2.11687e-05

*RES
1 *92:12 *741:D 1.4
2 *92:11 *741:Q 1.4
3 *92:10 *92:12 0.124289
4 *92:9 *92:11 0.372866
5 *92:8 *92:10 1.4
6 *92:7 *92:9 1.4
7 *92:7 *92:8 2.23709
8 *92:6 *92:7 0.497131
9 *92:5 *92:6 1.4
10 *92:4 *92:5 1.1186
11 *92:3 *92:4 1.4
12 *92:2 *92:3 0.124283
13 *92:1 *92:2 1.4
14 *1122:A0 *92:1 1.4
*END

*D_NET *93 0.0011528

*CONN
*I *740:D I *C 15.515 18.415 *L 0.00183 *D SDFFQX1
*I *1185:A0 I *C 15.515 15.805 *L 0.00264 *D AOI22X1
*I *740:Q O *C 10.295 17.835 *L 0 *D SDFFQX1

*CAP
1 *93:1 4.1014e-05
2 *93:2 0.000184563
3 *93:3 0.000391836
4 *93:4 0.000143549
5 *93:5 0.000391836

*RES
1 *93:7 *740:Q 1.4
2 *93:5 *93:7 1.4
3 *93:4 *1185:A0 1.4
4 *93:3 *93:5 2.2372
5 *93:2 *93:4 0.869983
6 *93:2 *93:3 1.4
7 *93:1 *93:2 0.248567
8 *740:D *93:1 1.4
*END

*D_NET *94 0.00192325

*CONN
*I *1137:A0 I *C 45.675 21.315 *L 0.00271 *D OAI21X1
*I *739:Q O *C 49.155 16.385 *L 0 *D SDFFQX1
*I *739:D I *C 43.935 15.805 *L 0.00183 *D SDFFQX1

*CAP
1 *94:2 7.69271e-05
2 *94:3 7.69271e-05
3 *94:4 0.00033851
4 *94:5 0.00040198
5 *94:6 0.000384635
6 *94:7 6.34705e-05
7 *94:8 0.000384635
8 *94:9 7.69271e-05
9 *94:10 2.11568e-05
10 *94:11 7.69271e-05
11 *94:12 2.11568e-05

*RES
1 *94:13 *739:D 1.4
2 *94:12 *739:Q 1.4
3 *94:11 *94:13 1.4
4 *94:10 *94:12 0.124288
5 *94:9 *94:11 0.372848
6 *94:8 *94:10 1.4
7 *94:7 *94:9 1.4
8 *94:6 *94:8 1.86424
9 *94:5 *94:7 0.372864
10 *94:5 *94:6 1.4
11 *94:4 *94:5 1.98861
12 *94:3 *94:4 1.4
13 *94:2 *94:3 0.372848
14 *94:1 *94:2 1.4
15 *1137:A0 *94:1 1.4
*END

*D_NET *95 0.00196081

*CONN
*I *768:D I *C 96.715 96.715 *L 0.00183 *D SDFFQX1
*I *768:Q O *C 91.495 96.135 *L 0 *D SDFFQX1
*I *1103:A1 I *C 90.045 89.465 *L 0.00171 *D AOI22XL

*CAP
1 *95:1 1.96862e-05
2 *95:2 1.96862e-05
3 *95:3 0.000382107
4 *95:4 0.000382107
5 *95:5 1.96862e-05
6 *95:6 3.93724e-05
7 *95:8 1.96862e-05
8 *95:9 0.000106141
9 *95:10 0.000106141
10 *95:11 0.000433096
11 *95:12 0.000433096

*RES
1 *95:12 *1103:A1 1.4
2 *95:11 *95:12 2.73422
3 *95:10 *95:11 1.4
4 *95:9 *95:10 0.621444
5 *95:8 *95:9 1.4
6 *95:6 *95:8 0.124283
7 *95:6 *768:Q 1.4
8 *95:5 *95:6 0.124283
9 *95:4 *95:5 1.4
10 *95:3 *95:4 2.2372
11 *95:2 *95:3 1.4
12 *95:1 *95:2 0.124283
13 *768:D *95:1 1.4
*END

*D_NET *96 0.00153696

*CONN
*I *1088:A0 I *C 92.075 88.885 *L 0.00264 *D AOI22X1
*I *767:Q O *C 94.395 90.915 *L 0 *D SDFFQX1
*I *767:D I *C 99.615 91.495 *L 0.00183 *D SDFFQX1

*CAP
1 *96:1 1.96862e-05
2 *96:2 1.96862e-05
3 *96:3 0.000169826
4 *96:4 0.000169826
5 *96:5 0.00015749
6 *96:6 0.000196862
7 *96:7 3.93724e-05
8 *96:9 0.000382107
9 *96:10 0.000382107

*RES
1 *96:11 *767:D 1.4
2 *96:10 *96:11 1.4
3 *96:9 *96:10 2.2372
4 *96:7 *96:9 1.4
5 *96:6 *767:Q 1.4
6 *96:6 *96:7 0.248565
7 *96:5 *96:6 0.994261
8 *96:4 *96:5 1.4
9 *96:3 *96:4 0.99431
10 *96:2 *96:3 1.4
11 *96:1 *96:2 0.124283
12 *1088:A0 *96:1 1.4
*END

*D_NET *97 0.00149955

*CONN
*I *1077:B0 I *C 92.945 47.415 *L 0.00265 *D AOI22X1
*I *766:Q O *C 94.685 49.155 *L 0 *D SDFFQX1
*I *766:D I *C 99.905 49.735 *L 0.00183 *D SDFFQX1

*CAP
1 *97:2 7.1453e-05
2 *97:3 7.1453e-05
3 *97:4 0.000133612
4 *97:5 0.000133612
5 *97:6 7.1453e-05
6 *97:7 7.1453e-05
7 *97:8 2.22686e-05
8 *97:9 2.22686e-05
9 *97:11 0.000428718
10 *97:12 0.000428718
11 *97:13 2.22686e-05
12 *97:14 2.22686e-05

*RES
1 *97:14 *766:D 1.4
2 *97:13 *97:14 0.124288
3 *97:12 *97:13 1.4
4 *97:11 *97:12 2.23709
5 *97:9 *97:11 1.4
6 *97:8 *766:Q 1.4
7 *97:8 *97:9 0.124288
8 *97:7 *97:8 1.4
9 *97:6 *97:7 0.372848
10 *97:5 *97:6 1.4
11 *97:4 *97:5 0.745727
12 *97:3 *97:4 1.4
13 *97:2 *97:3 0.372848
14 *97:1 *97:2 1.4
15 *1077:B0 *97:1 1.4
*END

*D_NET *98 0.00283219

*CONN
*I *1053:B0 I *C 38.135 85.985 *L 0.00265 *D AOI22X1
*I *765:D I *C 36.685 96.715 *L 0.00183 *D SDFFQX1
*I *765:Q O *C 31.465 96.135 *L 0 *D SDFFQX1

*CAP
1 *98:1 4.11354e-05
2 *98:2 4.11354e-05
3 *98:3 0.000177666
4 *98:4 0.000177666
5 *98:5 0.000658166
6 *98:6 0.000719869
7 *98:7 6.17031e-05
8 *98:8 0.000406094
9 *98:9 5.07618e-05
10 *98:10 0.000406094
11 *98:11 5.07618e-05
12 *98:12 2.05677e-05
13 *98:14 2.05677e-05

*RES
1 *98:14 *765:Q 1.4
2 *98:13 *765:D 1.4
3 *98:12 *98:14 0.124283
4 *98:11 *98:13 1.4
5 *98:10 *98:12 1.4
6 *98:9 *98:11 0.248566
7 *98:8 *98:10 1.98853
8 *98:7 *98:9 1.4
9 *98:6 *98:8 1.4
10 *98:6 *98:7 0.372848
11 *98:5 *98:6 3.97705
12 *98:4 *98:5 1.4
13 *98:3 *98:4 0.86998
14 *98:2 *98:3 1.4
15 *98:1 *98:2 0.248565
16 *1053:B0 *98:1 1.4
*END

*D_NET *99 0.00241198

*CONN
*I *1068:B0 I *C 90.625 47.415 *L 0.00265 *D AOI22X1
*I *764:Q O *C 94.395 42.485 *L 0 *D SDFFQX1
*I *764:D I *C 99.615 41.905 *L 0.00183 *D SDFFQX1

*CAP
1 *99:2 0.000119088
2 *99:3 0.000119088
3 *99:4 0.000400836
4 *99:5 0.000400836
5 *99:6 0.000190541
6 *99:7 0.000190541
7 *99:8 2.22686e-05
8 *99:9 2.22686e-05
9 *99:10 0.000428718
10 *99:12 0.000428718
11 *99:13 4.45373e-05
12 *99:14 4.45373e-05

*RES
1 *99:14 *764:D 1.4
2 *99:13 *99:14 0.248576
3 *99:12 *99:13 1.4
4 *99:10 *99:12 2.23709
5 *99:9 *764:Q 1.4
6 *99:9 *99:10 1.4
7 *99:8 *99:9 0.124288
8 *99:7 *99:8 1.4
9 *99:6 *99:7 0.994261
10 *99:5 *99:6 1.4
11 *99:4 *99:5 2.23718
12 *99:3 *99:4 1.4
13 *99:2 *99:3 0.621413
14 *99:1 *99:2 1.4
15 *1068:B0 *99:1 1.4
*END

*D_NET *100 0.00182832

*CONN
*I *763:D I *C 46.545 91.495 *L 0.00183 *D SDFFQX1
*I *763:Q O *C 41.325 90.915 *L 0 *D SDFFQX1
*I *1112:B0 I *C 45.675 85.985 *L 0.00265 *D AOI22X1

*CAP
1 *100:1 2.05677e-05
2 *100:2 2.05677e-05
3 *100:3 0.000101524
4 *100:4 0.000101524
5 *100:5 6.17031e-05
6 *100:6 0.000411354
7 *100:7 0.000355333
8 *100:8 0.000349651
9 *100:9 0.000355333
10 *100:10 2.53809e-05
11 *100:12 2.53809e-05

*RES
1 *100:14 *1112:B0 1.4
2 *100:12 *100:14 1.4
3 *100:11 *763:Q 1.4
4 *100:10 *100:12 0.124283
5 *100:9 *100:11 1.4
6 *100:8 *100:10 1.4
7 *100:7 *100:9 1.73996
8 *100:6 *100:8 2.11281
9 *100:6 *100:7 1.4
10 *100:5 *100:6 0.372848
11 *100:4 *100:5 1.4
12 *100:3 *100:4 0.497132
13 *100:2 *100:3 1.4
14 *100:1 *100:2 0.124283
15 *763:D *100:1 1.4
*END

*D_NET *101 0.00164268

*CONN
*I *1052:B0 I *C 90.2225 67.9325 *L 0.00163 *D AOI222XL
*I *762:Q O *C 91.495 70.035 *L 0 *D SDFFQX1
*I *762:D I *C 96.715 70.615 *L 0.00183 *D SDFFQX1

*CAP
1 *101:1 8.85743e-06
2 *101:2 1.4494e-05
3 *101:3 5.63655e-06
4 *101:4 0.000183595
5 *101:5 0.000183595
6 *101:6 0.00016346
7 *101:7 0.000210163
8 *101:8 4.67028e-05
9 *101:9 9.17977e-05
10 *101:10 0.000321292
11 *101:11 9.17977e-05
12 *101:12 0.000321292

*RES
1 *101:14 *762:D 1.4
2 *101:13 *762:Q 1.4
3 *101:12 *101:14 1.4
4 *101:11 *101:13 1.4
5 *101:10 *101:12 1.74004
6 *101:9 *101:11 0.497155
7 *101:8 *101:10 1.4
8 *101:7 *101:9 1.4
9 *101:7 *101:8 0.248569
10 *101:6 *101:7 0.869992
11 *101:5 *101:6 1.4
12 *101:4 *101:5 0.99431
13 *101:3 *101:4 1.4
14 *101:2 *101:3 0.0299997
15 *101:1 *101:2 0.0471424
16 *1052:B0 *101:1 1.4
*END

*D_NET *102 0.00169528

*CONN
*I *761:D I *C 31.175 86.275 *L 0.00183 *D SDFFQX1
*I *1350:A0 I *C 33.205 81.055 *L 0.00158 *D AO22XL
*I *761:Q O *C 36.395 85.695 *L 0 *D SDFFQX1

*CAP
1 *102:2 0.000177666
2 *102:3 0.000177666
3 *102:4 2.05677e-05
4 *102:5 0.000370219
5 *102:6 0.00027919
6 *102:7 0.000349651
7 *102:8 0.00027919
8 *102:10 2.05677e-05
9 *102:11 2.05677e-05

*RES
1 *102:11 *761:Q 1.4
2 *102:10 *102:11 0.124283
3 *102:8 *102:10 1.4
4 *102:7 *1350:A0 1.4
5 *102:6 *102:8 1.36711
6 *102:5 *102:7 2.11281
7 *102:5 *102:6 1.4
8 *102:4 *102:5 0.124283
9 *102:3 *102:4 1.4
10 *102:2 *102:3 0.86998
11 *102:1 *102:2 1.4
12 *761:D *102:1 1.4
*END

*D_NET *103 0.00322648

*CONN
*I *760:D I *C 20.445 96.715 *L 0.00183 *D SDFFQX1
*I *1348:A0 I *C 20.155 78.445 *L 0.00158 *D AO22XL
*I *760:Q O *C 15.225 96.135 *L 0 *D SDFFQX1

*CAP
1 *103:1 3.94288e-05
2 *103:2 3.94288e-05
3 *103:3 2.06241e-05
4 *103:4 0.000371234
5 *103:5 0.00120258
6 *103:6 0.00035061
7 *103:7 0.00120258

*RES
1 *103:8 *760:Q 1.4
2 *103:7 *1348:A0 1.4
3 *103:6 *103:8 1.4
4 *103:5 *103:7 7.58155
5 *103:4 *103:6 2.11281
6 *103:4 *103:5 1.4
7 *103:3 *103:4 0.124283
8 *103:2 *103:3 1.4
9 *103:1 *103:2 0.248576
10 *760:D *103:1 1.4
*END

*D_NET *104 0.00185457

*CONN
*I *759:D I *C 19.575 60.175 *L 0.00183 *D SDFFQX1
*I *1062:B0 I *C 22.185 57.855 *L 0.00265 *D AOI22X1
*I *759:Q O *C 14.355 59.595 *L 0 *D SDFFQX1

*CAP
1 *104:1 0.000189019
2 *104:2 0.000189019
3 *104:3 0.000265112
4 *104:4 0.000198834
5 *104:5 6.6278e-05
6 *104:7 0.000141764
7 *104:9 0.000141764
8 *104:10 0.00033139
9 *104:11 0.00033139

*RES
1 *104:12 *759:Q 1.4
2 *104:11 *104:12 1.4
3 *104:10 *104:11 1.86433
4 *104:9 *104:10 1.4
5 *104:7 *104:9 0.745696
6 *104:6 *1062:B0 1.4
7 *104:5 *104:7 1.4
8 *104:4 *104:6 1.4
9 *104:3 *104:5 0.372866
10 *104:3 *104:4 1.1186
11 *104:2 *104:3 1.4
12 *104:1 *104:2 0.994261
13 *759:D *104:1 1.4
*END

*D_NET *105 0.00236907

*CONN
*I *981:A0 I *C 47.65 47.4275 *L 0.00263 *D AOI211X1
*I *758:Q O *C 47.415 43.935 *L 0 *D SDFFQX1
*I *758:D I *C 52.635 44.515 *L 0.00183 *D SDFFQX1

*CAP
1 *105:1 4.77693e-06
2 *105:2 6.07973e-06
3 *105:3 1.3028e-06
4 *105:4 0.000171651
5 *105:5 0.000171651
6 *105:6 0.000302249
7 *105:7 0.000302249
8 *105:8 0.000143042
9 *105:9 0.000656539
10 *105:10 0.000513497
11 *105:12 4.80149e-05
12 *105:14 4.80149e-05

*RES
1 *105:14 *758:D 1.4
2 *105:12 *105:14 0.248565
3 *105:11 *758:Q 1.4
4 *105:10 *105:12 1.4
5 *105:9 *105:11 1.4
6 *105:9 *105:10 2.2372
7 *105:8 *105:9 0.621444
8 *105:7 *105:8 1.4
9 *105:6 *105:7 1.49145
10 *105:5 *105:6 1.4
11 *105:4 *105:5 0.745732
12 *105:3 *105:4 1.4
13 *105:2 *105:3 0.00642868
14 *105:1 *105:2 0.0235718
15 *981:A0 *105:1 1.4
*END

*D_NET *106 0.00200788

*CONN
*I *757:D I *C 50.315 7.975 *L 0.00183 *D SDFFQX1
*I *1145:A0 I *C 47.705 13.195 *L 0.00264 *D AOI22X1
*I *757:Q O *C 45.095 7.395 *L 0 *D SDFFQX1

*CAP
1 *106:1 4.23137e-05
2 *106:2 4.23137e-05
3 *106:3 0.000307708
4 *106:4 0.000307708
5 *106:5 0.000423137
6 *106:6 0.00033851
7 *106:7 8.46274e-05
8 *106:8 7.69271e-05
9 *106:9 0.000153854
10 *106:10 7.69271e-05
11 *106:11 0.000153854

*RES
1 *106:13 *757:Q 1.4
2 *106:12 *1145:A0 1.4
3 *106:11 *106:13 1.4
4 *106:10 *106:12 1.4
5 *106:9 *106:11 0.745696
6 *106:8 *106:10 0.372848
7 *106:7 *106:9 1.4
8 *106:6 *106:8 1.4
9 *106:5 *106:7 0.497152
10 *106:5 *106:6 1.98861
11 *106:4 *106:5 1.4
12 *106:3 *106:4 1.49139
13 *106:2 *106:3 1.4
14 *106:1 *106:2 0.248576
15 *757:D *106:1 1.4
*END

*D_NET *107 0.00303626

*CONN
*I *1179:A0 I *C 69.165 15.805 *L 0.00265 *D OAI22X1
*I *756:Q O *C 71.195 11.165 *L 0 *D SDFFQX1
*I *756:D I *C 76.415 10.585 *L 0.00183 *D SDFFQX1

*CAP
1 *107:2 0.000126153
2 *107:3 0.000126153
3 *107:4 0.000444542
4 *107:5 0.000444542
5 *107:6 0.000302766
6 *107:7 0.000302766
7 *107:8 0.000105843
8 *107:9 0.000127012
9 *107:10 2.11687e-05
10 *107:12 0.00045415
11 *107:13 0.00045415
12 *107:14 6.3506e-05
13 *107:15 6.3506e-05

*RES
1 *107:15 *756:D 1.4
2 *107:14 *107:15 0.372866
3 *107:13 *107:14 1.4
4 *107:12 *107:13 2.23709
5 *107:10 *107:12 1.4
6 *107:9 *756:Q 1.4
7 *107:9 *107:10 0.124289
8 *107:8 *107:9 0.621444
9 *107:7 *107:8 1.4
10 *107:6 *107:7 1.49139
11 *107:5 *107:6 1.4
12 *107:4 *107:5 2.61006
13 *107:3 *107:4 1.4
14 *107:2 *107:3 0.621413
15 *107:1 *107:2 1.4
16 *1179:A0 *107:1 1.4
*END

*D_NET *108 0.001609

*CONN
*I *1184:A0 I *C 15.805 10.585 *L 0.00264 *D AOI22X1
*I *755:Q O *C 15.805 5.945 *L 0 *D SDFFQX1
*I *755:D I *C 21.025 5.365 *L 0.00183 *D SDFFQX1

*CAP
1 *108:2 4.35373e-05
2 *108:3 4.35373e-05
3 *108:4 0.000328112
4 *108:5 0.000328112
5 *108:6 0.000391836
6 *108:7 0.000348299
7 *108:8 4.35373e-05
8 *108:9 4.1014e-05
9 *108:11 4.1014e-05

*RES
1 *108:11 *755:D 1.4
2 *108:10 *755:Q 1.4
3 *108:9 *108:11 0.248567
4 *108:8 *108:10 1.4
5 *108:7 *108:9 1.4
6 *108:6 *108:8 0.248578
7 *108:6 *108:7 1.98862
8 *108:5 *108:6 1.4
9 *108:4 *108:5 1.98853
10 *108:3 *108:4 1.4
11 *108:2 *108:3 0.248578
12 *108:1 *108:2 1.4
13 *1184:A0 *108:1 1.4
*END

*D_NET *109 0.00206559

*CONN
*I *1133:A0 I *C 43.355 12.905 *L 0.00264 *D AOI221X1
*I *754:D I *C 43.355 5.365 *L 0.00183 *D SDFFQX1
*I *754:Q O *C 48.575 5.945 *L 0 *D SDFFQX1

*CAP
1 *109:1 0.000486607
2 *109:2 0.000550078
3 *109:3 0.000461563
4 *109:4 6.34705e-05
5 *109:5 0.000461563
6 *109:7 2.11568e-05
7 *109:8 2.11568e-05

*RES
1 *109:8 *754:Q 1.4
2 *109:7 *109:8 0.124288
3 *109:5 *109:7 1.4
4 *109:4 *754:D 1.4
5 *109:3 *109:5 2.23709
6 *109:2 *109:4 0.372864
7 *109:2 *109:3 1.4
8 *109:1 *109:2 2.85863
9 *1133:A0 *109:1 1.4
*END

*D_NET *110 0.0017615

*CONN
*I *1006:A0 I *C 75.835 91.205 *L 0.00264 *D AOI221X1
*I *783:D I *C 76.705 96.715 *L 0.00183 *D SDFFQX1
*I *783:Q O *C 81.925 96.135 *L 0 *D SDFFQX1

*CAP
1 *110:1 0.000368467
2 *110:2 0.000368467
3 *110:3 7.29793e-05
4 *110:4 0.000472127
5 *110:5 0.000399148
6 *110:6 2.04704e-05
7 *110:7 1.96862e-05
8 *110:8 2.04704e-05
9 *110:9 1.96862e-05

*RES
1 *110:9 *783:Q 1.4
2 *110:8 *783:D 1.4
3 *110:7 *110:9 0.124283
4 *110:6 *110:8 0.124288
5 *110:5 *110:7 1.4
6 *110:4 *110:6 1.4
7 *110:4 *110:5 2.2372
8 *110:3 *110:4 0.372866
9 *110:2 *110:3 1.4
10 *110:1 *110:2 2.23718
11 *1006:A0 *110:1 1.4
*END

*D_NET *111 0.00127477

*CONN
*I *782:D I *C 74.675 88.885 *L 0.00183 *D SDFFQX1
*I *1090:A0 I *C 78.445 86.275 *L 0.00264 *D AOI22X1
*I *782:Q O *C 79.895 89.465 *L 0 *D SDFFQX1

*CAP
1 *111:2 0.000314694
2 *111:3 0.000314694
3 *111:4 0.000216548
4 *111:5 3.93724e-05
5 *111:6 0.000177176
6 *111:7 0.000106141
7 *111:9 0.000106141

*RES
1 *111:10 *782:Q 1.4
2 *111:9 *111:10 1.4
3 *111:7 *111:9 0.621444
4 *111:6 *1090:A0 1.4
5 *111:5 *111:7 1.4
6 *111:4 *111:6 1.11854
7 *111:4 *111:5 0.248565
8 *111:3 *111:4 1.4
9 *111:2 *111:3 1.61575
10 *111:1 *111:2 1.4
11 *782:D *111:1 1.4
*END

*D_NET *112 0.00226795

*CONN
*I *1074:A0 I *C 72.065 65.395 *L 0.00264 *D AOI22X1
*I *781:D I *C 66.555 65.395 *L 0.00183 *D SDFFQX1
*I *781:Q O *C 61.335 64.815 *L 0 *D SDFFQX1

*CAP
1 *112:1 2.40564e-05
2 *112:2 2.40564e-05
3 *112:3 0.000520545
4 *112:4 0.00101369
5 *112:5 2.40564e-05
6 *112:6 0.000493148
7 *112:7 2.40564e-05
8 *112:8 7.21692e-05
9 *112:10 7.21692e-05

*RES
1 *112:10 *781:Q 1.4
2 *112:8 *112:10 0.372866
3 *112:7 *781:D 1.4
4 *112:6 *112:8 1.4
5 *112:5 *112:7 0.124289
6 *112:4 *112:6 2.2372
7 *112:4 *112:5 1.4
8 *112:3 *112:4 2.36149
9 *112:2 *112:3 1.4
10 *112:1 *112:2 0.124289
11 *1074:A0 *112:1 1.4
*END

*D_NET *113 0.00247244

*CONN
*I *780:D I *C 59.015 96.715 *L 0.00183 *D SDFFQX1
*I *1082:A0 I *C 63.945 86.275 *L 0.00264 *D AOI22X1
*I *780:Q O *C 64.235 96.135 *L 0 *D SDFFQX1

*CAP
1 *113:1 2.04704e-05
2 *113:2 2.04704e-05
3 *113:3 0.000413549
4 *113:4 0.000413549
5 *113:5 8.18817e-05
6 *113:6 0.000757405
7 *113:7 2.43264e-05
8 *113:8 0.000675524
9 *113:9 2.43264e-05
10 *113:11 2.04704e-05
11 *113:12 2.04704e-05

*RES
1 *113:12 *780:Q 1.4
2 *113:11 *113:12 0.124288
3 *113:9 *113:11 1.4
4 *113:8 *1082:A0 1.4
5 *113:7 *113:9 0.124289
6 *113:6 *113:8 4.1015
7 *113:6 *113:7 1.4
8 *113:5 *113:6 0.497151
9 *113:4 *113:5 1.4
10 *113:3 *113:4 2.11291
11 *113:2 *113:3 1.4
12 *113:1 *113:2 0.124288
13 *780:D *113:1 1.4
*END

*D_NET *114 0.00168852

*CONN
*I *1108:A0 I *C 67.135 52.345 *L 0.00264 *D AOI22X1
*I *779:D I *C 72.645 49.735 *L 0.00183 *D SDFFQX1
*I *779:Q O *C 67.425 49.155 *L 0 *D SDFFQX1

*CAP
1 *114:2 2.73971e-05
2 *114:3 2.73971e-05
3 *114:4 0.000216091
4 *114:5 0.000216091
5 *114:6 5.52757e-05
6 *114:7 0.000552757
7 *114:8 0.000497482
8 *114:9 4.80149e-05
9 *114:11 4.80149e-05

*RES
1 *114:11 *779:Q 1.4
2 *114:10 *779:D 1.4
3 *114:9 *114:11 0.248565
4 *114:8 *114:10 1.4
5 *114:7 *114:9 1.4
6 *114:7 *114:8 2.23719
7 *114:6 *114:7 0.248576
8 *114:5 *114:6 1.4
9 *114:4 *114:5 1.11855
10 *114:3 *114:4 1.4
11 *114:2 *114:3 0.124289
12 *114:1 *114:2 1.4
13 *1108:A0 *114:1 1.4
*END

*D_NET *115 0.00255288

*CONN
*I *1005:B0 I *C 54.375 59.885 *L 0.00274 *D AOI221X1
*I *778:D I *C 55.535 68.005 *L 0.00183 *D SDFFQX1
*I *778:Q O *C 50.315 68.585 *L 0 *D SDFFQX1

*CAP
1 *115:2 5.47942e-05
2 *115:3 5.47942e-05
3 *115:4 0.000673579
4 *115:5 0.000697635
5 *115:6 2.40564e-05
6 *115:7 5.47942e-05
7 *115:8 0.000444031
8 *115:9 5.47942e-05
9 *115:10 0.000444031
10 *115:12 2.51873e-05
11 *115:14 2.51873e-05

*RES
1 *115:14 *778:Q 1.4
2 *115:12 *115:14 0.124289
3 *115:11 *778:D 1.4
4 *115:10 *115:12 1.4
5 *115:9 *115:11 1.4
6 *115:8 *115:10 1.98858
7 *115:7 *115:9 0.248577
8 *115:6 *115:8 1.4
9 *115:5 *115:7 1.4
10 *115:5 *115:6 0.124289
11 *115:4 *115:5 3.48009
12 *115:3 *115:4 1.4
13 *115:2 *115:3 0.248577
14 *115:1 *115:2 1.4
15 *1005:B0 *115:1 1.4
*END

*D_NET *116 0.00136944

*CONN
*I *777:D I *C 77.285 65.395 *L 0.00183 *D SDFFQX1
*I *777:Q O *C 82.505 64.815 *L 0 *D SDFFQX1
*I *1075:B0 I *C 79.025 63.075 *L 0.00265 *D AOI22X1

*CAP
1 *116:2 0.000107365
2 *116:3 0.000107365
3 *116:4 2.33514e-05
4 *116:5 0.000186811
5 *116:6 0.000321292
6 *116:7 0.00016346
7 *116:8 0.000321292
8 *116:9 4.58988e-05
9 *116:10 2.33514e-05
10 *116:11 4.58988e-05
11 *116:12 2.33514e-05

*RES
1 *116:13 *1075:B0 1.4
2 *116:12 *777:Q 1.4
3 *116:11 *116:13 1.4
4 *116:10 *116:12 0.124285
5 *116:9 *116:11 0.248578
6 *116:8 *116:10 1.4
7 *116:7 *116:9 1.4
8 *116:6 *116:8 1.74004
9 *116:5 *116:7 0.869992
10 *116:5 *116:6 1.4
11 *116:4 *116:5 0.124285
12 *116:3 *116:4 1.4
13 *116:2 *116:3 0.497155
14 *116:1 *116:2 1.4
15 *777:D *116:1 1.4
*END

*D_NET *117 0.00227169

*CONN
*I *1345:B0 I *C 14.645 89.175 *L 0.00274 *D AOI221X1
*I *776:D I *C 9.715 94.105 *L 0.00183 *D SDFFQX1
*I *776:Q O *C 4.495 94.685 *L 0 *D SDFFQX1

*CAP
1 *117:1 1.97144e-05
2 *117:2 1.97144e-05
3 *117:3 0.000206241
4 *117:4 0.000206241
5 *117:5 0.00035486
6 *117:6 0.00035486
7 *117:7 0.000144369
8 *117:8 0.000515602
9 *117:10 0.000371234
10 *117:12 3.94288e-05
11 *117:13 3.94288e-05

*RES
1 *117:13 *776:Q 1.4
2 *117:12 *117:13 0.248576
3 *117:10 *117:12 1.4
4 *117:9 *776:D 1.4
5 *117:8 *117:10 2.2371
6 *117:8 *117:9 1.4
7 *117:7 *117:8 0.869982
8 *117:6 *117:7 1.4
9 *117:5 *117:6 2.23718
10 *117:4 *117:5 1.4
11 *117:3 *117:4 1.24283
12 *117:2 *117:3 1.4
13 *117:1 *117:2 0.124288
14 *1345:B0 *117:1 1.4
*END

*D_NET *118 0.00280368

*CONN
*I *1347:B0 I *C 13.775 83.375 *L 0.00171 *D AO22XL
*I *775:D I *C 12.615 96.715 *L 0.00183 *D SDFFQX1
*I *775:Q O *C 7.395 96.135 *L 0 *D SDFFQX1

*CAP
1 *118:2 2.06241e-05
2 *118:3 2.06241e-05
3 *118:4 0.000867434
4 *118:5 0.000867434
5 *118:6 0.00010312
6 *118:7 0.000474354
7 *118:8 3.94288e-05
8 *118:9 0.000371234
9 *118:10 3.94288e-05

*RES
1 *118:11 *775:Q 1.4
2 *118:10 *775:D 1.4
3 *118:9 *118:11 1.4
4 *118:8 *118:10 0.248576
5 *118:7 *118:9 2.2371
6 *118:7 *118:8 1.4
7 *118:6 *118:7 0.621415
8 *118:5 *118:6 1.4
9 *118:4 *118:5 5.46866
10 *118:3 *118:4 1.4
11 *118:2 *118:3 0.124283
12 *118:1 *118:2 1.4
13 *1347:B0 *118:1 1.4
*END

*D_NET *119 0.00130593

*CONN
*I *1064:B0 I *C 12.615 59.885 *L 0.00265 *D AOI22X1
*I *774:D I *C 11.745 57.565 *L 0.00183 *D SDFFQX1
*I *774:Q O *C 6.525 58.145 *L 0 *D SDFFQX1

*CAP
1 *119:1 0.000141764
2 *119:2 0.000141764
3 *119:3 6.6278e-05
4 *119:4 0.000463946
5 *119:5 4.72548e-05
6 *119:6 0.000397668
7 *119:7 4.72548e-05

*RES
1 *119:8 *774:Q 1.4
2 *119:7 *774:D 1.4
3 *119:6 *119:8 1.4
4 *119:5 *119:7 0.248565
5 *119:4 *119:6 2.2372
6 *119:4 *119:5 1.4
7 *119:3 *119:4 0.372866
8 *119:2 *119:3 1.4
9 *119:1 *119:2 0.745696
10 *1064:B0 *119:1 1.4
*END

*D_NET *120 0.00132806

*CONN
*I *773:D I *C 54.955 54.955 *L 0.00183 *D SDFFQX1
*I *773:Q O *C 49.735 54.375 *L 0 *D SDFFQX1
*I *1092:A0 I *C 48.575 54.955 *L 0.00264 *D AOI22X1

*CAP
1 *120:2 0.000500572
2 *120:3 0.000613654
3 *120:4 5.03747e-05
4 *120:5 0.000113082
5 *120:6 5.03747e-05

*RES
1 *120:7 *1092:A0 1.4
2 *120:6 *773:Q 1.4
3 *120:5 *120:7 1.4
4 *120:4 *120:6 0.248578
5 *120:3 *120:5 0.497131
6 *120:3 *120:4 1.4
7 *120:2 *120:3 2.23715
8 *120:1 *120:2 1.4
9 *773:D *120:1 1.4
*END

*D_NET *121 0.00222275

*CONN
*I *772:D I *C 51.475 5.365 *L 0.00183 *D SDFFQX1
*I *1144:A1 I *C 54.665 11.165 *L 0.00171 *D AOI22XL
*I *772:Q O *C 56.695 5.945 *L 0 *D SDFFQX1

*CAP
1 *121:1 6.34705e-05
2 *121:2 6.34705e-05
3 *121:3 0.000278565
4 *121:4 0.000278565
5 *121:5 0.000486879
6 *121:6 0.000359867
7 *121:7 0.000127012
8 *121:9 0.000176614
9 *121:10 0.000176614
10 *121:11 0.000105843
11 *121:12 0.000105843

*RES
1 *121:12 *772:Q 1.4
2 *121:11 *121:12 0.621444
3 *121:10 *121:11 1.4
4 *121:9 *121:10 0.869979
5 *121:7 *121:9 1.4
6 *121:6 *1144:A1 1.4
7 *121:5 *121:7 0.745732
8 *121:5 *121:6 2.11291
9 *121:4 *121:5 1.4
10 *121:3 *121:4 1.36711
11 *121:2 *121:3 1.4
12 *121:1 *121:2 0.372864
13 *772:D *121:1 1.4
*END

*D_NET *122 0.00265011

*CONN
*I *1174:A0 I *C 73.515 13.195 *L 0.00264 *D AOI22X1
*I *771:Q O *C 82.215 5.945 *L 0 *D SDFFQX1
*I *771:D I *C 76.995 5.365 *L 0.00183 *D SDFFQX1

*CAP
1 *122:1 2.11687e-05
2 *122:2 2.11687e-05
3 *122:3 0.000100922
4 *122:4 0.000100922
5 *122:5 0.000550385
6 *122:6 0.000550385
7 *122:7 0.000201844
8 *122:8 0.000610239
9 *122:9 0.000408395
10 *122:10 4.23373e-05
11 *122:12 4.23373e-05

*RES
1 *122:12 *771:D 1.4
2 *122:11 *771:Q 1.4
3 *122:10 *122:12 0.248578
4 *122:9 *122:11 1.4
5 *122:8 *122:10 1.4
6 *122:8 *122:9 2.23709
7 *122:7 *122:8 0.994261
8 *122:6 *122:7 1.4
9 *122:5 *122:6 3.23151
10 *122:4 *122:5 1.4
11 *122:3 *122:4 0.497131
12 *122:2 *122:3 1.4
13 *122:1 *122:2 0.124289
14 *1174:A0 *122:1 1.4
*END

*D_NET *123 0.00156294

*CONN
*I *770:D I *C 12.325 5.365 *L 0.00183 *D SDFFQX1
*I *1183:A0 I *C 10.295 10.585 *L 0.00264 *D AOI22X1
*I *770:Q O *C 7.105 5.945 *L 0 *D SDFFQX1

*CAP
1 *123:1 6.1521e-05
2 *123:2 6.1521e-05
3 *123:3 0.000152381
4 *123:4 0.000152381
5 *123:5 0.000328112
6 *123:6 0.000307605
7 *123:7 2.0507e-05
8 *123:9 0.000239455
9 *123:10 0.000239455

*RES
1 *123:11 *770:Q 1.4
2 *123:10 *123:11 1.4
3 *123:9 *123:10 1.36718
4 *123:7 *123:9 1.4
5 *123:6 *1183:A0 1.4
6 *123:5 *123:7 0.124283
7 *123:5 *123:6 1.86425
8 *123:4 *123:5 1.4
9 *123:3 *123:4 0.870021
10 *123:2 *123:3 1.4
11 *123:1 *123:2 0.37285
12 *770:D *123:1 1.4
*END

*D_NET *124 0.00226176

*CONN
*I *1136:A0 I *C 38.425 13.195 *L 0.00264 *D AOI22X1
*I *769:D I *C 37.555 5.365 *L 0.00183 *D SDFFQX1
*I *769:Q O *C 32.335 5.945 *L 0 *D SDFFQX1

*CAP
1 *124:1 0.000507764
2 *124:2 0.000507764
3 *124:3 7.69271e-05
4 *124:4 0.00053849
5 *124:5 6.34705e-05
6 *124:6 0.000461563
7 *124:7 6.34705e-05
8 *124:8 2.11568e-05
9 *124:10 2.11568e-05

*RES
1 *124:10 *769:Q 1.4
2 *124:8 *124:10 0.124288
3 *124:7 *769:D 1.4
4 *124:6 *124:8 1.4
5 *124:5 *124:7 0.372864
6 *124:4 *124:6 2.23709
7 *124:4 *124:5 1.4
8 *124:3 *124:4 0.372848
9 *124:2 *124:3 1.4
10 *124:1 *124:2 2.98291
11 *1136:A0 *124:1 1.4
*END

*D_NET *125 0.00146125

*CONN
*I *1006:B0 I *C 74.385 91.205 *L 0.00274 *D AOI221X1
*I *798:D I *C 73.225 94.105 *L 0.00183 *D SDFFQX1
*I *798:Q O *C 78.445 94.685 *L 0 *D SDFFQX1

*CAP
1 *125:2 4.86529e-05
2 *125:3 4.86529e-05
3 *125:4 0.000204704
4 *125:5 0.000245645
5 *125:6 4.09408e-05
6 *125:7 4.86529e-05
7 *125:8 0.000387674
8 *125:9 4.86529e-05
9 *125:10 0.000387674

*RES
1 *125:12 *798:Q 1.4
2 *125:11 *798:D 1.4
3 *125:10 *125:12 1.4
4 *125:9 *125:11 1.4
5 *125:8 *125:10 1.98862
6 *125:7 *125:9 0.248578
7 *125:6 *125:8 1.4
8 *125:5 *125:7 1.4
9 *125:5 *125:6 0.248576
10 *125:4 *125:5 1.24288
11 *125:3 *125:4 1.4
12 *125:2 *125:3 0.248578
13 *125:1 *125:2 1.4
14 *1006:B0 *125:1 1.4
*END

*D_NET *126 0.00115665

*CONN
*I *797:D I *C 74.675 83.665 *L 0.00183 *D SDFFQX1
*I *797:Q O *C 79.895 84.245 *L 0 *D SDFFQX1
*I *1090:B0 I *C 79.605 85.985 *L 0.00265 *D AOI22X1

*CAP
1 *126:2 0.000357151
2 *126:3 0.000357151
3 *126:4 3.93724e-05
4 *126:5 3.93724e-05
5 *126:6 4.24564e-05
6 *126:7 6.36846e-05
7 *126:8 2.12282e-05
8 *126:9 0.000118117
9 *126:11 0.000118117

*RES
1 *126:11 *1090:B0 1.4
2 *126:10 *797:Q 1.4
3 *126:9 *126:11 0.745696
4 *126:8 *126:10 1.4
5 *126:7 *126:9 1.4
6 *126:7 *126:8 0.124289
7 *126:6 *126:7 0.248578
8 *126:5 *126:6 1.4
9 *126:4 *126:5 0.248565
10 *126:3 *126:4 1.4
11 *126:2 *126:3 1.86433
12 *126:1 *126:2 1.4
13 *797:D *126:1 1.4
*END

*D_NET *127 0.00161844

*CONN
*I *1074:B0 I *C 73.225 65.105 *L 0.00265 *D AOI22X1
*I *796:D I *C 70.035 68.005 *L 0.00183 *D SDFFQX1
*I *796:Q O *C 75.255 68.585 *L 0 *D SDFFQX1

*CAP
1 *127:2 2.73971e-05
2 *127:3 2.73971e-05
3 *127:4 0.000240564
4 *127:5 0.00026462
5 *127:6 2.40564e-05
6 *127:7 0.000328765
7 *127:8 0.000164383
8 *127:9 0.000328765
9 *127:10 0.000164383
10 *127:12 2.40564e-05
11 *127:14 2.40564e-05

*RES
1 *127:14 *796:Q 1.4
2 *127:12 *127:14 0.124289
3 *127:11 *796:D 1.4
4 *127:10 *127:12 1.4
5 *127:9 *127:11 1.4
6 *127:8 *127:10 0.745732
7 *127:7 *127:9 1.49146
8 *127:6 *127:8 1.4
9 *127:5 *127:7 1.4
10 *127:5 *127:6 0.124289
11 *127:4 *127:5 1.24289
12 *127:3 *127:4 1.4
13 *127:2 *127:3 0.124289
14 *127:1 *127:2 1.4
15 *1074:B0 *127:1 1.4
*END

*D_NET *128 0.00198115

*CONN
*I *795:D I *C 60.175 91.495 *L 0.00183 *D SDFFQX1
*I *1082:B0 I *C 62.785 85.985 *L 0.00265 *D AOI22X1
*I *795:Q O *C 65.395 90.915 *L 0 *D SDFFQX1

*CAP
1 *128:1 6.14113e-05
2 *128:2 6.14113e-05
3 *128:3 0.000218938
4 *128:4 0.000218938
5 *128:5 0.000143293
6 *128:6 0.000450349
7 *128:7 0.000218938
8 *128:8 0.000307056
9 *128:9 0.000218938
10 *128:11 4.09408e-05
11 *128:12 4.09408e-05

*RES
1 *128:12 *795:Q 1.4
2 *128:11 *128:12 0.248576
3 *128:9 *128:11 1.4
4 *128:8 *1082:B0 1.4
5 *128:7 *128:9 1.1186
6 *128:6 *128:8 1.86432
7 *128:6 *128:7 1.4
8 *128:5 *128:6 0.870015
9 *128:4 *128:5 1.4
10 *128:3 *128:4 1.1186
11 *128:2 *128:3 1.4
12 *128:1 *128:2 0.372863
13 *795:D *128:1 1.4
*END

*D_NET *129 0.00228973

*CONN
*I *1141:B0 I *C 63.075 39.005 *L 0.00265 *D AOI22X1
*I *794:Q O *C 66.845 42.485 *L 0 *D SDFFQX1
*I *794:D I *C 72.065 41.905 *L 0.00183 *D SDFFQX1

*CAP
1 *129:1 4.80149e-05
2 *129:2 4.80149e-05
3 *129:3 0.000359292
4 *129:4 0.000359292
5 *129:5 0.00019206
6 *129:6 0.000240074
7 *129:7 4.80149e-05
8 *129:8 0.000497482
9 *129:10 0.000497482

*RES
1 *129:11 *794:D 1.4
2 *129:10 *129:11 1.4
3 *129:8 *129:10 2.23719
4 *129:7 *794:Q 1.4
5 *129:6 *129:8 1.4
6 *129:6 *129:7 0.248565
7 *129:5 *129:6 0.994261
8 *129:4 *129:5 1.4
9 *129:3 *129:4 1.61575
10 *129:2 *129:3 1.4
11 *129:1 *129:2 0.248565
12 *1141:B0 *129:1 1.4
*END

*D_NET *130 0.00177814

*CONN
*I *793:D I *C 55.245 62.785 *L 0.00183 *D SDFFQX1
*I *1127:A I *C 52.345 60.175 *L 0.00157 *D NAND2XL
*I *793:Q O *C 50.025 63.365 *L 0 *D SDFFQX1

*CAP
1 *130:1 4.81128e-05
2 *130:2 4.81128e-05
3 *130:3 0.000246574
4 *130:4 0.000246574
5 *130:5 0.000288677
6 *130:6 2.40564e-05
7 *130:7 0.00026462
8 *130:8 0.000253124
9 *130:9 2.73971e-05
10 *130:10 0.000253124
11 *130:11 2.73971e-05
12 *130:12 2.51873e-05
13 *130:14 2.51873e-05

*RES
1 *130:14 *793:Q 1.4
2 *130:13 *1127:A 1.4
3 *130:12 *130:14 0.124289
4 *130:11 *130:13 1.4
5 *130:10 *130:12 1.4
6 *130:9 *130:11 0.124289
7 *130:8 *130:10 1.11855
8 *130:7 *130:9 1.4
9 *130:6 *130:8 1.4
10 *130:5 *130:7 1.36718
11 *130:5 *130:6 0.124289
12 *130:4 *130:5 1.4
13 *130:3 *130:4 1.1186
14 *130:2 *130:3 1.4
15 *130:1 *130:2 0.248578
16 *793:D *130:1 1.4
*END

*D_NET *131 0.00151554

*CONN
*I *792:D I *C 66.555 54.955 *L 0.00183 *D SDFFQX1
*I *1143:A0 I *C 61.335 57.565 *L 0.00158 *D AO22XL
*I *792:Q O *C 61.335 54.375 *L 0 *D SDFFQX1

*CAP
1 *131:2 0.000493148
2 *131:3 0.000493148
3 *131:4 0.00026462
4 *131:5 0.000216507
5 *131:6 4.81128e-05

*RES
1 *131:6 *792:Q 1.4
2 *131:5 *1143:A0 1.4
3 *131:4 *131:6 0.248578
4 *131:4 *131:5 1.1186
5 *131:3 *131:4 1.4
6 *131:2 *131:3 2.2372
7 *131:1 *131:2 1.4
8 *792:D *131:1 1.4
*END

*D_NET *132 0.00202602

*CONN
*I *1044:A0 I *C 12.905 78.735 *L 0.00265 *D AOI21X1
*I *791:D I *C 9.425 83.665 *L 0.00183 *D SDFFQX1
*I *791:Q O *C 4.205 84.245 *L 0 *D SDFFQX1

*CAP
1 *132:2 0.000123745
2 *132:3 0.000123745
3 *132:4 0.00035486
4 *132:5 0.00035486
5 *132:6 0.000123745
6 *132:7 0.000494978
7 *132:8 1.97144e-05
8 *132:9 0.000371234
9 *132:10 1.97144e-05
10 *132:11 1.97144e-05
11 *132:13 1.97144e-05

*RES
1 *132:13 *791:Q 1.4
2 *132:11 *132:13 0.124288
3 *132:10 *791:D 1.4
4 *132:9 *132:11 1.4
5 *132:8 *132:10 0.124288
6 *132:7 *132:9 2.2371
7 *132:7 *132:8 1.4
8 *132:6 *132:7 0.745699
9 *132:5 *132:6 1.4
10 *132:4 *132:5 2.23718
11 *132:3 *132:4 1.4
12 *132:2 *132:3 0.745699
13 *132:1 *132:2 1.4
14 *1044:A0 *132:1 1.4
*END

*D_NET *133 0.00158867

*CONN
*I *1347:A0 I *C 12.325 83.665 *L 0.00158 *D AO22XL
*I *790:D I *C 9.425 86.275 *L 0.00183 *D SDFFQX1
*I *790:Q O *C 4.205 85.695 *L 0 *D SDFFQX1

*CAP
1 *133:1 1.97144e-05
2 *133:2 1.97144e-05
3 *133:3 6.18723e-05
4 *133:4 6.18723e-05
5 *133:5 0.000157715
6 *133:6 0.000157715
7 *133:7 0.000144369
8 *133:8 0.000515602
9 *133:9 3.94288e-05
10 *133:10 0.000371234
11 *133:11 3.94288e-05

*RES
1 *133:12 *790:Q 1.4
2 *133:11 *790:D 1.4
3 *133:10 *133:12 1.4
4 *133:9 *133:11 0.248576
5 *133:8 *133:10 2.2371
6 *133:8 *133:9 1.4
7 *133:7 *133:8 0.869982
8 *133:6 *133:7 1.4
9 *133:5 *133:6 0.994302
10 *133:4 *133:5 1.4
11 *133:3 *133:4 0.372849
12 *133:2 *133:3 1.4
13 *133:1 *133:2 0.124288
14 *1347:A0 *133:1 1.4
*END

*D_NET *134 0.0024701

*CONN
*I *1039:B1 I *C 16.385 58.145 *L 0.00171 *D AOI22XL
*I *789:D I *C 9.425 60.175 *L 0.00183 *D SDFFQX1
*I *789:Q O *C 4.205 59.595 *L 0 *D SDFFQX1

*CAP
1 *134:1 7.08822e-05
2 *134:2 7.08822e-05
3 *134:3 0.000463946
4 *134:4 0.000463946
5 *134:5 0.000189019
6 *134:6 0.000189019
7 *134:7 6.6278e-05
8 *134:8 0.000463946
9 *134:9 4.72548e-05
10 *134:10 0.000397668
11 *134:11 4.72548e-05

*RES
1 *134:12 *789:Q 1.4
2 *134:11 *789:D 1.4
3 *134:10 *134:12 1.4
4 *134:9 *134:11 0.248565
5 *134:8 *134:10 2.2372
6 *134:8 *134:9 1.4
7 *134:7 *134:8 0.372866
8 *134:6 *134:7 1.4
9 *134:5 *134:6 0.994261
10 *134:4 *134:5 1.4
11 *134:3 *134:4 2.61006
12 *134:2 *134:3 1.4
13 *134:1 *134:2 0.372848
14 *1039:B1 *134:1 1.4
*END

*D_NET *135 0.00153382

*CONN
*I *1092:B0 I *C 47.415 54.665 *L 0.00265 *D AOI22X1
*I *788:Q O *C 48.285 52.925 *L 0 *D SDFFQX1
*I *788:D I *C 43.065 52.345 *L 0.00183 *D SDFFQX1

*CAP
1 *135:2 5.6541e-05
2 *135:3 5.6541e-05
3 *135:4 0.000151124
4 *135:5 0.000201499
5 *135:6 0.000141352
6 *135:7 5.03747e-05
7 *135:8 0.000141352
8 *135:9 0.000367516
9 *135:11 0.000367516

*RES
1 *135:13 *788:D 1.4
2 *135:11 *135:13 1.4
3 *135:10 *788:Q 1.4
4 *135:9 *135:11 1.61568
5 *135:8 *135:10 1.4
6 *135:7 *135:9 1.4
7 *135:6 *135:8 0.621414
8 *135:5 *135:7 0.248578
9 *135:5 *135:6 1.4
10 *135:4 *135:5 0.745732
11 *135:3 *135:4 1.4
12 *135:2 *135:3 0.248566
13 *135:1 *135:2 1.4
14 *1092:B0 *135:1 1.4
*END

*D_NET *136 0.00220748

*CONN
*I *1147:A1 I *C 60.175 11.165 *L 0.00171 *D AOI22XL
*I *787:D I *C 64.235 7.975 *L 0.00183 *D SDFFQX1
*I *787:Q O *C 69.455 7.395 *L 0 *D SDFFQX1

*CAP
1 *136:1 0.000211687
2 *136:2 0.000211687
3 *136:3 0.000353227
4 *136:4 0.000807377
5 *136:5 0.00045415
6 *136:6 2.11687e-05
7 *136:7 6.3506e-05
8 *136:8 2.11687e-05
9 *136:9 6.3506e-05

*RES
1 *136:9 *787:Q 1.4
2 *136:8 *787:D 1.4
3 *136:7 *136:9 0.372866
4 *136:6 *136:8 0.124289
5 *136:5 *136:7 1.4
6 *136:4 *136:6 1.4
7 *136:4 *136:5 2.23709
8 *136:3 *136:4 1.73996
9 *136:2 *136:3 1.4
10 *136:1 *136:2 1.24289
11 *1147:A1 *136:1 1.4
*END

*D_NET *137 0.00180551

*CONN
*I *1174:B0 I *C 72.355 12.905 *L 0.00265 *D AOI22X1
*I *786:D I *C 72.645 7.975 *L 0.00183 *D SDFFQX1
*I *786:Q O *C 77.865 7.395 *L 0 *D SDFFQX1

*CAP
1 *137:1 0.000381036
2 *137:2 0.000381036
3 *137:3 2.52305e-05
4 *137:4 0.00047938
5 *137:5 0.00045415
6 *137:6 2.11687e-05
7 *137:7 2.11687e-05
8 *137:8 2.11687e-05
9 *137:9 2.11687e-05

*RES
1 *137:9 *786:Q 1.4
2 *137:8 *786:D 1.4
3 *137:7 *137:9 0.124289
4 *137:6 *137:8 0.124289
5 *137:5 *137:7 1.4
6 *137:4 *137:6 1.4
7 *137:4 *137:5 2.23709
8 *137:3 *137:4 0.124283
9 *137:2 *137:3 1.4
10 *137:1 *137:2 2.2372
11 *1174:B0 *137:1 1.4
*END

*D_NET *138 0.000952775

*CONN
*I *785:D I *C 11.745 15.805 *L 0.00183 *D SDFFQX1
*I *785:Q O *C 6.525 16.385 *L 0 *D SDFFQX1
*I *1182:A0 I *C 5.945 15.805 *L 0.00264 *D AOI22X1

*CAP
1 *138:2 0.000391836
2 *138:3 0.000435373
3 *138:4 4.1014e-05
4 *138:5 4.35373e-05
5 *138:6 4.1014e-05

*RES
1 *138:7 *1182:A0 1.4
2 *138:6 *785:Q 1.4
3 *138:5 *138:7 1.4
4 *138:4 *138:6 0.248567
5 *138:3 *138:5 0.248578
6 *138:3 *138:4 1.4
7 *138:2 *138:3 2.2372
8 *138:1 *138:2 1.4
9 *785:D *138:1 1.4
*END

*D_NET *139 0.00143986

*CONN
*I *784:D I *C 31.465 10.585 *L 0.00183 *D SDFFQX1
*I *784:Q O *C 36.685 11.165 *L 0 *D SDFFQX1
*I *1135:B0 I *C 34.945 12.905 *L 0.00265 *D AOI22X1

*CAP
1 *139:1 2.11568e-05
2 *139:2 2.11568e-05
3 *139:3 0.000333351
4 *139:4 0.000333351
5 *139:5 8.46274e-05
6 *139:6 0.000190412
7 *139:7 0.000128212
8 *139:8 0.000105784
9 *139:9 0.000128212
10 *139:10 2.56424e-05
11 *139:11 2.11568e-05
12 *139:12 2.56424e-05
13 *139:13 2.11568e-05

*RES
1 *139:14 *1135:B0 1.4
2 *139:13 *784:Q 1.4
3 *139:12 *139:14 1.4
4 *139:11 *139:13 0.124288
5 *139:10 *139:12 0.124283
6 *139:9 *139:11 1.4
7 *139:8 *139:10 1.4
8 *139:7 *139:9 0.621413
9 *139:6 *139:8 0.621441
10 *139:6 *139:7 1.4
11 *139:5 *139:6 0.497152
12 *139:4 *139:5 1.4
13 *139:3 *139:4 1.61567
14 *139:2 *139:3 1.4
15 *139:1 *139:2 0.124288
16 *784:D *139:1 1.4
*END

*D_NET *140 0.00131543

*CONN
*I *813:D I *C 85.985 94.105 *L 0.00183 *D SDFFQX1
*I *1105:A1 I *C 81.055 90.915 *L 0.00171 *D AOI22XL
*I *813:Q O *C 80.765 94.685 *L 0 *D SDFFQX1

*CAP
1 *140:1 1.96862e-05
2 *140:2 1.96862e-05
3 *140:3 0.000360879
4 *140:4 0.000360879
5 *140:5 0.00025592
6 *140:6 1.96862e-05
7 *140:7 0.000236234
8 *140:8 2.12282e-05
9 *140:10 2.12282e-05

*RES
1 *140:11 *813:Q 1.4
2 *140:10 *140:11 1.4
3 *140:8 *140:10 0.124289
4 *140:7 *1105:A1 1.4
5 *140:6 *140:8 1.4
6 *140:5 *140:7 1.49139
7 *140:5 *140:6 0.124283
8 *140:4 *140:5 1.4
9 *140:3 *140:4 2.11291
10 *140:2 *140:3 1.4
11 *140:1 *140:2 0.124283
12 *813:D *140:1 1.4
*END

*D_NET *141 0.00123668

*CONN
*I *812:D I *C 85.695 88.885 *L 0.00183 *D SDFFQX1
*I *1098:A0 I *C 85.405 86.275 *L 0.00264 *D AOI22X1
*I *812:Q O *C 80.475 89.465 *L 0 *D SDFFQX1

*CAP
1 *141:1 1.96862e-05
2 *141:2 1.96862e-05
3 *141:3 2.12282e-05
4 *141:4 0.000382107
5 *141:5 0.000196862
6 *141:6 0.000360879
7 *141:7 0.000196862
8 *141:8 1.96862e-05
9 *141:10 1.96862e-05

*RES
1 *141:10 *812:Q 1.4
2 *141:8 *141:10 0.124283
3 *141:7 *1098:A0 1.4
4 *141:6 *141:8 1.4
5 *141:5 *141:7 1.24283
6 *141:4 *141:6 2.11291
7 *141:4 *141:5 1.4
8 *141:3 *141:4 0.124289
9 *141:2 *141:3 1.4
10 *141:1 *141:2 0.124283
11 *812:D *141:1 1.4
*END

*D_NET *142 0.00133122

*CONN
*I *811:D I *C 83.665 47.125 *L 0.00183 *D SDFFQX1
*I *1346:B0 I *C 85.5825 49.8075 *L 0.00163 *D AOI222XL
*I *811:Q O *C 88.885 47.705 *L 0 *D SDFFQX1

*CAP
1 *142:2 0.000166724
2 *142:3 0.000166724
3 *142:4 6.68059e-05
4 *142:5 0.000206177
5 *142:6 0.000261994
6 *142:7 0.000147818
7 *142:8 0.000261994
8 *142:9 8.44673e-06
9 *142:10 2.22686e-05
10 *142:12 2.22686e-05

*RES
1 *142:12 *811:Q 1.4
2 *142:10 *142:12 0.124288
3 *142:9 *1346:B0 1.4
4 *142:8 *142:10 1.4
5 *142:7 *142:9 0.0471436
6 *142:6 *142:8 1.36711
7 *142:5 *142:7 0.77787
8 *142:5 *142:6 1.4
9 *142:4 *142:5 0.372863
10 *142:3 *142:4 1.4
11 *142:2 *142:3 0.869979
12 *142:1 *142:2 1.4
13 *811:D *142:1 1.4
*END

*D_NET *143 0.00155436

*CONN
*I *1083:A0 I *C 39.585 94.105 *L 0.00264 *D AOI22X1
*I *810:D I *C 36.395 94.105 *L 0.00181 *D SDFFQXL
*I *810:Q O *C 31.175 94.685 *L 0 *D SDFFQXL

*CAP
1 *143:2 0.00027919
2 *143:3 0.000736046
3 *143:5 0.000456856
4 *143:7 4.11354e-05
5 *143:8 4.11354e-05

*RES
1 *143:8 *810:Q 1.4
2 *143:7 *143:8 0.248565
3 *143:5 *143:7 1.4
4 *143:4 *810:D 1.4
5 *143:3 *143:5 2.23709
6 *143:3 *143:4 1.4
7 *143:2 *143:3 1.36711
8 *143:1 *143:2 1.4
9 *1083:A0 *143:1 1.4
*END

*D_NET *144 0.00140871

*CONN
*I *1048:B0 I *C 76.5275 44.5875 *L 0.00163 *D AOI222XL
*I *809:D I *C 83.955 44.515 *L 0.00181 *D SDFFQXL
*I *809:Q O *C 78.735 43.935 *L 0 *D SDFFQXL

*CAP
1 *144:1 9.52019e-06
2 *144:2 1.5729e-05
3 *144:3 6.20882e-06
4 *144:4 0.000215373
5 *144:5 0.000644091
6 *144:6 0.000428718
7 *144:7 4.45373e-05
8 *144:9 4.45373e-05

*RES
1 *144:9 *809:Q 1.4
2 *144:8 *809:D 1.4
3 *144:7 *144:9 0.248576
4 *144:6 *144:8 1.4
5 *144:5 *144:7 1.4
6 *144:5 *144:6 2.23709
7 *144:4 *144:5 0.994298
8 *144:3 *144:4 1.4
9 *144:2 *144:3 0.0321421
10 *144:1 *144:2 0.0492845
11 *1048:B0 *144:1 1.4
*END

*D_NET *145 0.00194855

*CONN
*I *808:D I *C 58.725 65.395 *L 0.00181 *D SDFFQXL
*I *1005:A0 I *C 55.825 59.885 *L 0.00264 *D AOI221X1
*I *808:Q O *C 53.505 64.815 *L 0 *D SDFFQXL

*CAP
1 *145:2 0.000273971
2 *145:3 0.000273971
3 *145:4 7.21692e-05
4 *145:5 0.000457071
5 *145:6 0.000219177
6 *145:7 0.000384902
7 *145:8 0.000219177
8 *145:10 2.40564e-05
9 *145:11 2.40564e-05

*RES
1 *145:11 *808:Q 1.4
2 *145:10 *145:11 0.124289
3 *145:8 *145:10 1.4
4 *145:7 *1005:A0 1.4
5 *145:6 *145:8 0.99431
6 *145:5 *145:7 1.98862
7 *145:5 *145:6 1.4
8 *145:4 *145:5 0.372866
9 *145:3 *145:4 1.4
10 *145:2 *145:3 1.24289
11 *145:1 *145:2 1.4
12 *808:D *145:1 1.4
*END

*D_NET *146 0.00164926

*CONN
*I *1079:A0 I *C 84.245 57.565 *L 0.00264 *D AOI22X1
*I *807:D I *C 82.505 54.955 *L 0.00183 *D SDFFQX1
*I *807:Q O *C 77.285 54.375 *L 0 *D SDFFQX1

*CAP
1 *146:1 0.000210163
2 *146:2 0.000210163
3 *146:3 0.000137696
4 *146:4 0.000566353
5 *146:6 0.000428656
6 *146:8 4.81128e-05
7 *146:9 4.81128e-05

*RES
1 *146:9 *807:Q 1.4
2 *146:8 *146:9 0.248578
3 *146:6 *146:8 1.4
4 *146:5 *807:D 1.4
5 *146:4 *146:6 2.2372
6 *146:4 *146:5 1.4
7 *146:3 *146:4 0.745732
8 *146:2 *146:3 1.4
9 *146:1 *146:2 1.11856
10 *1079:A0 *146:1 1.4
*END

*D_NET *147 0.00241286

*CONN
*I *1035:A0 I *C 30.015 91.205 *L 0.00264 *D AOI221X1
*I *806:Q O *C 23.055 94.685 *L 0 *D SDFFQXL
*I *806:D I *C 17.835 94.105 *L 0.00181 *D SDFFQXL

*CAP
1 *147:2 0.000497323
2 *147:3 0.000497323
3 *147:4 0.000236573
4 *147:5 0.000236573
5 *147:6 6.18723e-05
6 *147:7 0.000433106
7 *147:9 0.000371234
8 *147:11 3.94288e-05
9 *147:12 3.94288e-05

*RES
1 *147:12 *806:D 1.4
2 *147:11 *147:12 0.248576
3 *147:9 *147:11 1.4
4 *147:8 *806:Q 1.4
5 *147:7 *147:9 2.2371
6 *147:7 *147:8 1.4
7 *147:6 *147:7 0.372849
8 *147:5 *147:6 1.4
9 *147:4 *147:5 1.49145
10 *147:3 *147:4 1.4
11 *147:2 *147:3 2.60994
12 *147:1 *147:2 1.4
13 *1035:A0 *147:1 1.4
*END

*D_NET *148 0.00110348

*CONN
*I *1069:A0 I *C 27.115 91.495 *L 0.00264 *D AOI22X1
*I *805:Q O *C 26.245 90.915 *L 0 *D SDFFQX1
*I *805:D I *C 21.025 91.495 *L 0.00183 *D SDFFQX1

*CAP
1 *148:1 2.05677e-05
2 *148:2 2.05677e-05
3 *148:3 7.61427e-05
4 *148:4 0.000449755
5 *148:5 6.17031e-05
6 *148:6 0.000373612
7 *148:7 6.17031e-05
8 *148:8 1.97144e-05
9 *148:10 1.97144e-05

*RES
1 *148:10 *805:D 1.4
2 *148:8 *148:10 0.124288
3 *148:7 *805:Q 1.4
4 *148:6 *148:8 1.4
5 *148:5 *148:7 0.372848
6 *148:4 *148:6 2.2371
7 *148:4 *148:5 1.4
8 *148:3 *148:4 0.372849
9 *148:2 *148:3 1.4
10 *148:1 *148:2 0.124283
11 *1069:A0 *148:1 1.4
*END

*D_NET *149 0.00156155

*CONN
*I *1148:A0 I *C 20.155 49.735 *L 0.00158 *D AO22XL
*I *804:D I *C 17.255 49.735 *L 0.00183 *D SDFFQX1
*I *804:Q O *C 12.035 49.155 *L 0 *D SDFFQX1

*CAP
1 *149:1 2.34394e-05
2 *149:2 2.34394e-05
3 *149:3 0.000236992
4 *149:4 0.000663578
5 *149:5 2.34394e-05
6 *149:6 0.000426586
7 *149:7 2.34394e-05
8 *149:8 7.03181e-05
9 *149:10 7.03181e-05

*RES
1 *149:10 *804:Q 1.4
2 *149:8 *149:10 0.372848
3 *149:7 *804:D 1.4
4 *149:6 *149:8 1.4
5 *149:5 *149:7 0.124283
6 *149:4 *149:6 2.2372
7 *149:4 *149:5 1.4
8 *149:3 *149:4 1.24289
9 *149:2 *149:3 1.4
10 *149:1 *149:2 0.124283
11 *1148:A0 *149:1 1.4
*END

*D_NET *150 0.00157114

*CONN
*I *1209:A I *C 61.335 39.005 *L 0.00273 *D INVX1
*I *803:D I *C 61.335 41.905 *L 0.00183 *D SDFFQX1
*I *803:Q O *C 66.555 42.485 *L 0 *D SDFFQX1

*CAP
1 *150:1 0.000240074
2 *150:2 0.000240074
3 *150:3 0.000497482
4 *150:5 0.000497482
5 *150:6 4.80149e-05
6 *150:7 4.80149e-05

*RES
1 *150:7 *803:Q 1.4
2 *150:6 *150:7 0.248565
3 *150:5 *150:6 1.4
4 *150:3 *150:5 2.23719
5 *150:2 *803:D 1.4
6 *150:2 *150:3 1.4
7 *150:1 *150:2 1.24283
8 *1209:A *150:1 1.4
*END

*D_NET *151 0.00138042

*CONN
*I *1139:B1 I *C 55.245 16.385 *L 0.00171 *D AOI22XL
*I *802:Q O *C 56.985 16.385 *L 0 *D SDFFQX1
*I *802:D I *C 62.205 15.805 *L 0.00183 *D SDFFQX1

*CAP
1 *151:1 2.11687e-05
2 *151:2 2.11687e-05
3 *151:3 0.000151383
4 *151:4 0.000151383
5 *151:5 2.11687e-05
6 *151:6 2.11687e-05
7 *151:7 0.00045415
8 *151:9 0.00045415
9 *151:10 4.23373e-05
10 *151:11 4.23373e-05

*RES
1 *151:11 *802:D 1.4
2 *151:10 *151:11 0.248578
3 *151:9 *151:10 1.4
4 *151:7 *151:9 2.23709
5 *151:6 *802:Q 1.4
6 *151:6 *151:7 1.4
7 *151:5 *151:6 0.124289
8 *151:4 *151:5 1.4
9 *151:3 *151:4 0.745696
10 *151:2 *151:3 1.4
11 *151:1 *151:2 0.124289
12 *1139:B1 *151:1 1.4
*END

*D_NET *152 0.00133808

*CONN
*I *1159:A I *C 70.615 21.315 *L 0.00162 *D NOR2XL
*I *801:Q O *C 72.355 21.605 *L 0 *D SDFFQX1
*I *801:D I *C 77.575 21.025 *L 0.00183 *D SDFFQX1

*CAP
1 *152:1 2.11687e-05
2 *152:2 2.11687e-05
3 *152:3 0.000151383
4 *152:4 0.000151383
5 *152:5 4.23373e-05
6 *152:7 4.23373e-05
7 *152:8 0.00045415
8 *152:9 0.00045415

*RES
1 *152:10 *801:D 1.4
2 *152:9 *152:10 1.4
3 *152:8 *152:9 2.23709
4 *152:7 *152:8 1.4
5 *152:5 *152:7 0.248578
6 *152:5 *801:Q 1.4
7 *152:4 *152:5 1.4
8 *152:3 *152:4 0.745696
9 *152:2 *152:3 1.4
10 *152:1 *152:2 0.124289
11 *1159:A *152:1 1.4
*END

*D_NET *153 0.00153202

*CONN
*I *800:D I *C 25.955 7.975 *L 0.00183 *D SDFFQX1
*I *800:Q O *C 20.735 7.395 *L 0 *D SDFFQX1
*I *1178:B0 I *C 19.575 10.875 *L 0.00265 *D AOI22X1

*CAP
1 *153:2 0.000282993
2 *153:3 0.000282993
3 *153:4 4.1014e-05
4 *153:5 4.1014e-05
5 *153:6 0.000108843
6 *153:7 0.000195918
7 *153:9 8.70747e-05
8 *153:11 0.000246084
9 *153:12 0.000246084

*RES
1 *153:12 *1178:B0 1.4
2 *153:11 *153:12 1.4914
3 *153:9 *153:11 1.4
4 *153:8 *800:Q 1.4
5 *153:7 *153:9 0.497155
6 *153:7 *153:8 1.4
7 *153:6 *153:7 0.621444
8 *153:5 *153:6 1.4
9 *153:4 *153:5 0.248567
10 *153:3 *153:4 1.4
11 *153:2 *153:3 1.61575
12 *153:1 *153:2 1.4
13 *800:D *153:1 1.4
*END

*D_NET *154 0.00215107

*CONN
*I *1353:A0 I *C 29.725 13.195 *L 0.00158 *D AO22XL
*I *799:D I *C 29.145 5.365 *L 0.00183 *D SDFFQX1
*I *799:Q O *C 23.925 5.945 *L 0 *D SDFFQX1

*CAP
1 *154:2 2.56424e-05
2 *154:3 2.56424e-05
3 *154:4 0.000507764
4 *154:5 0.000507764
5 *154:6 2.56424e-05
6 *154:7 0.000458152
7 *154:8 6.34705e-05
8 *154:9 0.00043251
9 *154:10 6.34705e-05
10 *154:11 2.0507e-05
11 *154:13 2.0507e-05

*RES
1 *154:13 *799:Q 1.4
2 *154:11 *154:13 0.124283
3 *154:10 *799:D 1.4
4 *154:9 *154:11 1.4
5 *154:8 *154:10 0.372864
6 *154:7 *154:9 2.23713
7 *154:7 *154:8 1.4
8 *154:6 *154:7 0.124283
9 *154:5 *154:6 1.4
10 *154:4 *154:5 2.98291
11 *154:3 *154:4 1.4
12 *154:2 *154:3 0.124283
13 *154:1 *154:2 1.4
14 *1353:A0 *154:1 1.4
*END

*D_NET *155 0.0021036

*CONN
*I *1105:B1 I *C 81.635 90.915 *L 0.00171 *D AOI22XL
*I *828:Q O *C 90.625 96.135 *L 0 *D SDFFQX1
*I *828:D I *C 85.405 96.715 *L 0.00183 *D SDFFQX1

*CAP
1 *155:1 0.000354351
2 *155:2 0.000354351
3 *155:3 0.000275966
4 *155:4 0.000658074
5 *155:5 0.000382107
6 *155:6 3.93724e-05
7 *155:8 3.93724e-05

*RES
1 *155:8 *828:D 1.4
2 *155:7 *828:Q 1.4
3 *155:6 *155:8 0.248565
4 *155:5 *155:7 1.4
5 *155:4 *155:6 1.4
6 *155:4 *155:5 2.2372
7 *155:3 *155:4 1.61575
8 *155:2 *155:3 1.4
9 *155:1 *155:2 2.23709
10 *1105:B1 *155:1 1.4
*END

*D_NET *156 0.00172457

*CONN
*I *1098:B0 I *C 86.565 85.985 *L 0.00265 *D AOI22X1
*I *827:D I *C 88.015 91.495 *L 0.00181 *D SDFFQXL
*I *827:Q O *C 93.235 90.915 *L 0 *D SDFFQXL

*CAP
1 *156:1 1.96862e-05
2 *156:2 1.96862e-05
3 *156:3 0.000106141
4 *156:4 0.000106141
5 *156:5 0.000314979
6 *156:6 0.000354351
7 *156:7 0.000382107
8 *156:8 3.93724e-05
9 *156:9 0.000382107

*RES
1 *156:11 *827:Q 1.4
2 *156:9 *156:11 1.4
3 *156:8 *827:D 1.4
4 *156:7 *156:9 2.2372
5 *156:6 *156:8 0.248565
6 *156:6 *156:7 1.4
7 *156:5 *156:6 1.98852
8 *156:4 *156:5 1.4
9 *156:3 *156:4 0.621444
10 *156:2 *156:3 1.4
11 *156:1 *156:2 0.124283
12 *1098:B0 *156:1 1.4
*END

*D_NET *157 0.00235222

*CONN
*I *826:D I *C 81.055 49.735 *L 0.00181 *D SDFFQXL
*I *1041:C1 I *C 79.025 57.855 *L 0.00176 *D AOI222XL
*I *826:Q O *C 75.835 49.155 *L 0 *D SDFFQXL

*CAP
1 *157:1 2.22686e-05
2 *157:2 2.22686e-05
3 *157:3 0.000166724
4 *157:4 0.000166724
5 *157:5 0.000644636
6 *157:6 0.000622367
7 *157:7 2.22686e-05
8 *157:9 0.000294466
9 *157:10 0.000294466
10 *157:11 4.80149e-05
11 *157:12 4.80149e-05

*RES
1 *157:12 *826:Q 1.4
2 *157:11 *157:12 0.248565
3 *157:10 *157:11 1.4
4 *157:9 *157:10 1.36716
5 *157:7 *157:9 1.4
6 *157:6 *1041:C1 1.4
7 *157:5 *157:7 0.124288
8 *157:5 *157:6 3.35571
9 *157:4 *157:5 1.4
10 *157:3 *157:4 0.869979
11 *157:2 *157:3 1.4
12 *157:1 *157:2 0.124288
13 *826:D *157:1 1.4
*END

*D_NET *158 0.00143622

*CONN
*I *1083:B0 I *C 40.745 94.395 *L 0.00265 *D AOI22X1
*I *825:D I *C 41.615 96.715 *L 0.00181 *D SDFFQXL
*I *825:Q O *C 46.835 96.135 *L 0 *D SDFFQXL

*CAP
1 *158:2 2.53809e-05
2 *158:3 2.53809e-05
3 *158:4 0.000102838
4 *158:5 0.000102838
5 *158:6 5.07618e-05
6 *158:7 0.000507618
7 *158:8 0.000456856
8 *158:9 6.17031e-05
9 *158:10 2.05677e-05
10 *158:11 6.17031e-05
11 *158:12 2.05677e-05

*RES
1 *158:12 *825:Q 1.4
2 *158:11 *825:D 1.4
3 *158:10 *158:12 0.124283
4 *158:9 *158:11 0.372848
5 *158:8 *158:10 1.4
6 *158:7 *158:9 1.4
7 *158:7 *158:8 2.23709
8 *158:6 *158:7 0.248566
9 *158:5 *158:6 1.4
10 *158:4 *158:5 0.621413
11 *158:3 *158:4 1.4
12 *158:2 *158:3 0.124283
13 *158:1 *158:2 1.4
14 *1083:B0 *158:1 1.4
*END

*D_NET *159 0.00129502

*CONN
*I *824:D I *C 74.385 52.345 *L 0.00181 *D SDFFQXL
*I *824:Q O *C 69.165 52.925 *L 0 *D SDFFQXL
*I *1108:B0 I *C 68.295 52.635 *L 0.00265 *D AOI22X1

*CAP
1 *159:1 4.81128e-05
2 *159:2 4.81128e-05
3 *159:3 0.000493148
4 *159:4 0.000575339
5 *159:6 8.21913e-05
6 *159:8 2.40564e-05
7 *159:9 2.40564e-05

*RES
1 *159:9 *1108:B0 1.4
2 *159:8 *159:9 0.124289
3 *159:6 *159:8 1.4
4 *159:5 *824:Q 1.4
5 *159:4 *159:6 0.372866
6 *159:4 *159:5 1.4
7 *159:3 *159:4 2.2372
8 *159:2 *159:3 1.4
9 *159:1 *159:2 0.248578
10 *824:D *159:1 1.4
*END

*D_NET *160 0.00195674

*CONN
*I *1109:A0 I *C 51.475 91.495 *L 0.00264 *D AOI22X1
*I *823:D I *C 53.505 96.715 *L 0.00181 *D SDFFQXL
*I *823:Q O *C 48.285 96.135 *L 0 *D SDFFQXL

*CAP
1 *160:2 7.56155e-05
2 *160:3 7.56155e-05
3 *160:4 0.000368467
4 *160:5 0.000388938
5 *160:6 2.04704e-05
6 *160:7 9.73057e-05
7 *160:8 0.000354805
8 *160:9 9.73057e-05
9 *160:10 0.000354805
10 *160:12 6.17031e-05
11 *160:14 6.17031e-05

*RES
1 *160:14 *823:Q 1.4
2 *160:12 *160:14 0.372848
3 *160:11 *823:D 1.4
4 *160:10 *160:12 1.4
5 *160:9 *160:11 1.4
6 *160:8 *160:10 1.73996
7 *160:7 *160:9 0.497155
8 *160:6 *160:8 1.4
9 *160:5 *160:7 1.4
10 *160:5 *160:6 0.124288
11 *160:4 *160:5 2.23718
12 *160:3 *160:4 1.4
13 *160:2 *160:3 0.372852
14 *160:1 *160:2 1.4
15 *1109:A0 *160:1 1.4
*END

*D_NET *161 0.00138661

*CONN
*I *822:D I *C 81.345 73.225 *L 0.00181 *D SDFFQXL
*I *1065:A0 I *C 85.405 70.615 *L 0.00264 *D AOI22X1
*I *822:Q O *C 86.565 73.805 *L 0 *D SDFFQXL

*CAP
1 *161:1 2.33514e-05
2 *161:2 2.33514e-05
3 *161:3 0.000321292
4 *161:4 0.000321292
5 *161:5 0.000256865
6 *161:6 2.33514e-05
7 *161:7 0.000233514
8 *161:8 9.17977e-05
9 *161:10 9.17977e-05

*RES
1 *161:11 *822:Q 1.4
2 *161:10 *161:11 1.4
3 *161:8 *161:10 0.497155
4 *161:7 *1065:A0 1.4
5 *161:6 *161:8 1.4
6 *161:5 *161:7 1.24285
7 *161:5 *161:6 0.124285
8 *161:4 *161:5 1.4
9 *161:3 *161:4 1.74004
10 *161:2 *161:3 1.4
11 *161:1 *161:2 0.124285
12 *822:D *161:1 1.4
*END

*D_NET *162 0.0017765

*CONN
*I *1035:B0 I *C 31.465 91.205 *L 0.00274 *D AOI221X1
*I *821:Q O *C 30.885 94.685 *L 0 *D SDFFQXL
*I *821:D I *C 25.665 94.105 *L 0.00181 *D SDFFQXL

*CAP
1 *162:2 5.07618e-05
2 *162:3 5.07618e-05
3 *162:4 0.000246812
4 *162:5 0.000246812
5 *162:6 0.000101524
6 *162:7 0.000551245
7 *162:9 0.000449721
8 *162:11 3.94288e-05
9 *162:12 3.94288e-05

*RES
1 *162:12 *821:D 1.4
2 *162:11 *162:12 0.248576
3 *162:9 *162:11 1.4
4 *162:8 *821:Q 1.4
5 *162:7 *162:9 2.23709
6 *162:7 *162:8 1.4
7 *162:6 *162:7 0.497132
8 *162:5 *162:6 1.4
9 *162:4 *162:5 1.49139
10 *162:3 *162:4 1.4
11 *162:2 *162:3 0.248566
12 *162:1 *162:2 1.4
13 *1035:B0 *162:1 1.4
*END

*D_NET *163 0.00217056

*CONN
*I *820:D I *C 28.565 96.715 *L 0.00181 *D SDFFQXL
*I *1069:B0 I *C 28.275 91.205 *L 0.00265 *D AOI22X1
*I *820:Q O *C 23.345 96.135 *L 0 *D SDFFQXL

*CAP
1 *163:1 8.22708e-05
2 *163:2 8.22708e-05
3 *163:3 2.53809e-05
4 *163:4 0.000411667
5 *163:5 0.000473057
6 *163:6 0.000386286
7 *163:7 0.000473057
8 *163:8 0.000118287
9 *163:10 0.000118287

*RES
1 *163:10 *820:Q 1.4
2 *163:8 *163:10 0.745727
3 *163:7 *1069:B0 1.4
4 *163:6 *163:8 1.4
5 *163:5 *163:7 2.8585
6 *163:4 *163:6 2.11281
7 *163:4 *163:5 1.4
8 *163:3 *163:4 0.124283
9 *163:2 *163:3 1.4
10 *163:1 *163:2 0.497131
11 *820:D *163:1 1.4
*END

*D_NET *164 0.00231057

*CONN
*I *1148:B0 I *C 21.605 50.025 *L 0.00171 *D AO22XL
*I *819:D I *C 19.285 44.515 *L 0.00181 *D SDFFQXL
*I *819:Q O *C 14.065 43.935 *L 0 *D SDFFQXL

*CAP
1 *164:1 2.34394e-05
2 *164:2 2.34394e-05
3 *164:3 0.000189594
4 *164:4 0.000189594
5 *164:5 0.000468787
6 *164:6 0.000515666
7 *164:8 4.68787e-05
8 *164:9 0.000426586
9 *164:10 0.000426586

*RES
1 *164:11 *819:Q 1.4
2 *164:10 *164:11 1.4
3 *164:9 *164:10 2.2372
4 *164:8 *164:9 1.4
5 *164:6 *164:8 0.248565
6 *164:6 *819:D 1.4
7 *164:5 *164:6 2.48565
8 *164:4 *164:5 1.4
9 *164:3 *164:4 0.99431
10 *164:2 *164:3 1.4
11 *164:1 *164:2 0.124283
12 *1148:B0 *164:1 1.4
*END

*D_NET *165 0.00147511

*CONN
*I *818:D I *C 61.625 36.685 *L 0.00183 *D SDFFQX1
*I *1058:A0 I *C 59.595 39.005 *L 0.00265 *D AOI21X1
*I *818:Q O *C 56.405 37.265 *L 0 *D SDFFQX1

*CAP
1 *165:1 2.40074e-05
2 *165:2 2.40074e-05
3 *165:3 0.000138189
4 *165:4 0.000138189
5 *165:5 7.20223e-05
6 *165:6 7.20223e-05
7 *165:7 5.52757e-05
8 *165:8 0.000359292
9 *165:9 0.000144045
10 *165:10 0.000304017
11 *165:11 0.000144045

*RES
1 *165:12 *818:Q 1.4
2 *165:11 *1058:A0 1.4
3 *165:10 *165:12 1.4
4 *165:9 *165:11 0.745696
5 *165:8 *165:10 1.36717
6 *165:8 *165:9 1.4
7 *165:7 *165:8 0.248576
8 *165:6 *165:7 1.4
9 *165:5 *165:6 0.372848
10 *165:4 *165:5 1.4
11 *165:3 *165:4 0.621441
12 *165:2 *165:3 1.4
13 *165:1 *165:2 0.124283
14 *818:D *165:1 1.4
*END

*D_NET *166 0.00163793

*CONN
*I *1138:B0 I *C 55.245 29.145 *L 0.00171 *D AO22XL
*I *817:Q O *C 56.405 32.045 *L 0 *D SDFFQX1
*I *817:D I *C 51.185 31.465 *L 0.00183 *D SDFFQX1

*CAP
1 *166:2 2.76379e-05
2 *166:3 2.76379e-05
3 *166:4 0.000144045
4 *166:5 0.000144045
5 *166:6 0.000500879
6 *166:7 8.29136e-05
7 *166:8 0.000417965
8 *166:9 9.60298e-05
9 *166:10 5.03749e-05
10 *166:11 9.60298e-05
11 *166:12 5.03749e-05

*RES
1 *166:12 *817:D 1.4
2 *166:11 *817:Q 1.4
3 *166:10 *166:12 0.248575
4 *166:9 *166:11 0.497131
5 *166:8 *166:10 1.4
6 *166:7 *166:9 1.4
7 *166:6 *166:8 1.86433
8 *166:6 *166:7 0.372865
9 *166:5 *166:6 1.4
10 *166:4 *166:5 0.745696
11 *166:3 *166:4 1.4
12 *166:2 *166:3 0.124288
13 *166:1 *166:2 1.4
14 *1138:B0 *166:1 1.4
*END

*D_NET *167 0.00123716

*CONN
*I *1181:B0 I *C 69.745 23.345 *L 0.00262 *D OAI22X1
*I *816:D I *C 76.125 23.635 *L 0.00183 *D SDFFQX1
*I *816:Q O *C 70.905 23.055 *L 0 *D SDFFQX1

*CAP
1 *167:1 2.11687e-05
2 *167:2 2.11687e-05
3 *167:3 0.000100922
4 *167:4 0.000555072
5 *167:5 0.00045415
6 *167:6 4.23373e-05
7 *167:8 4.23373e-05

*RES
1 *167:8 *816:Q 1.4
2 *167:7 *816:D 1.4
3 *167:6 *167:8 0.248578
4 *167:5 *167:7 1.4
5 *167:4 *167:6 1.4
6 *167:4 *167:5 2.23709
7 *167:3 *167:4 0.497131
8 *167:2 *167:3 1.4
9 *167:1 *167:2 0.124289
10 *1181:B0 *167:1 1.4
*END

*D_NET *168 0.00128846

*CONN
*I *1177:B1 I *C 24.795 16.385 *L 0.00171 *D AOI22XL
*I *815:D I *C 23.345 18.415 *L 0.00183 *D SDFFQX1
*I *815:Q O *C 18.125 17.835 *L 0 *D SDFFQX1

*CAP
1 *168:2 4.35373e-05
2 *168:3 4.35373e-05
3 *168:4 0.000102535
4 *168:5 0.000102535
5 *168:6 6.5306e-05
6 *168:7 0.000457142
7 *168:8 4.1014e-05
8 *168:9 0.000391836
9 *168:10 4.1014e-05

*RES
1 *168:11 *815:Q 1.4
2 *168:10 *815:D 1.4
3 *168:9 *168:11 1.4
4 *168:8 *168:10 0.248567
5 *168:7 *168:9 2.2372
6 *168:7 *168:8 1.4
7 *168:6 *168:7 0.372866
8 *168:5 *168:6 1.4
9 *168:4 *168:5 0.621417
10 *168:3 *168:4 1.4
11 *168:2 *168:3 0.248578
12 *168:1 *168:2 1.4
13 *1177:B1 *168:1 1.4
*END

*D_NET *169 0.00200145

*CONN
*I *1354:A0 I *C 35.525 21.025 *L 0.00158 *D AO22XL
*I *814:Q O *C 33.495 17.835 *L 0 *D SDFFQX1
*I *814:D I *C 28.275 18.415 *L 0.00183 *D SDFFQX1

*CAP
1 *169:1 4.23137e-05
2 *169:2 4.23137e-05
3 *169:3 0.000102569
4 *169:4 0.000102569
5 *169:5 0.000275039
6 *169:6 0.000275039
7 *169:7 7.69271e-05
8 *169:8 0.00053849
9 *169:10 0.000461563
10 *169:12 4.23137e-05
11 *169:13 4.23137e-05

*RES
1 *169:13 *814:D 1.4
2 *169:12 *169:13 0.248576
3 *169:10 *169:12 1.4
4 *169:9 *814:Q 1.4
5 *169:8 *169:10 2.23709
6 *169:8 *169:9 1.4
7 *169:7 *169:8 0.372848
8 *169:6 *169:7 1.4
9 *169:5 *169:6 1.61575
10 *169:4 *169:5 1.4
11 *169:3 *169:4 0.497131
12 *169:2 *169:3 1.4
13 *169:1 *169:2 0.248576
14 *1354:A0 *169:1 1.4
*END

*D_NET *170 0.00149758

*CONN
*I *843:D I *C 68.585 83.665 *L 0.00183 *D SDFFQX1
*I *843:Q O *C 63.365 84.245 *L 0 *D SDFFQX1
*I *1102:A1 I *C 66.265 80.475 *L 0.00171 *D AOI22XL

*CAP
1 *170:2 0.000170285
2 *170:3 0.000170285
3 *170:4 2.04704e-05
4 *170:5 0.000225175
5 *170:6 0.000267591
6 *170:7 0.000204704
7 *170:8 0.000267591
8 *170:9 2.43264e-05
9 *170:10 6.14113e-05
10 *170:11 2.43264e-05
11 *170:12 6.14113e-05

*RES
1 *170:13 *1102:A1 1.4
2 *170:12 *843:Q 1.4
3 *170:11 *170:13 1.4
4 *170:10 *170:12 0.372863
5 *170:9 *170:11 0.124289
6 *170:8 *170:10 1.4
7 *170:7 *170:9 1.4
8 *170:6 *170:8 1.36718
9 *170:5 *170:7 1.24288
10 *170:5 *170:6 1.4
11 *170:4 *170:5 0.124288
12 *170:3 *170:4 1.4
13 *170:2 *170:3 0.870021
14 *170:1 *170:2 1.4
15 *843:D *170:1 1.4
*END

*D_NET *171 0.00172251

*CONN
*I *1095:A1 I *C 81.925 79.025 *L 0.00171 *D AOI22XL
*I *842:D I *C 89.175 75.835 *L 0.00181 *D SDFFQXL
*I *842:Q O *C 83.955 75.255 *L 0 *D SDFFQXL

*CAP
1 *171:1 1.96862e-05
2 *171:2 1.96862e-05
3 *171:3 8.49128e-05
4 *171:4 8.49128e-05
5 *171:5 0.000228016
6 *171:6 0.000228016
7 *171:7 6.88482e-05
8 *171:8 0.000481938
9 *171:9 0.000413089
10 *171:10 4.67028e-05
11 *171:12 4.67028e-05

*RES
1 *171:12 *842:Q 1.4
2 *171:11 *842:D 1.4
3 *171:10 *171:12 0.248569
4 *171:9 *171:11 1.4
5 *171:8 *171:10 1.4
6 *171:8 *171:9 2.2372
7 *171:7 *171:8 0.372866
8 *171:6 *171:7 1.4
9 *171:5 *171:6 1.24284
10 *171:4 *171:5 1.4
11 *171:3 *171:4 0.497155
12 *171:2 *171:3 1.4
13 *171:1 *171:2 0.124283
14 *1095:A1 *171:1 1.4
*END

*D_NET *172 0.00143967

*CONN
*I *841:D I *C 92.075 49.735 *L 0.00181 *D SDFFQXL
*I *1076:B0 I *C 88.305 52.635 *L 0.00265 *D AOI22X1
*I *841:Q O *C 86.855 49.155 *L 0 *D SDFFQXL

*CAP
1 *172:1 2.22686e-05
2 *172:2 2.22686e-05
3 *172:3 0.00030963
4 *172:4 0.00030963
5 *172:5 0.000246579
6 *172:6 0.000202042
7 *172:7 4.45373e-05
8 *172:9 0.000119088
9 *172:10 0.000119088
10 *172:11 2.22686e-05
11 *172:12 2.22686e-05

*RES
1 *172:12 *841:Q 1.4
2 *172:11 *172:12 0.124288
3 *172:10 *172:11 1.4
4 *172:9 *172:10 0.621413
5 *172:7 *172:9 1.4
6 *172:6 *1076:B0 1.4
7 *172:5 *172:7 0.248576
8 *172:5 *172:6 1.11859
9 *172:4 *172:5 1.4
10 *172:3 *172:4 1.61567
11 *172:2 *172:3 1.4
12 *172:1 *172:2 0.124288
13 *841:D *172:1 1.4
*END

*D_NET *173 0.00162264

*CONN
*I *840:D I *C 44.515 83.665 *L 0.00181 *D SDFFQXL
*I *840:Q O *C 39.295 84.245 *L 0 *D SDFFQXL
*I *1084:B0 I *C 39.005 80.765 *L 0.00265 *D AOI22X1

*CAP
1 *173:1 2.05677e-05
2 *173:2 2.05677e-05
3 *173:3 0.000456856
4 *173:4 0.000456856
5 *173:5 6.17031e-05
6 *173:6 6.17031e-05
7 *173:7 2.53809e-05
8 *173:9 2.53809e-05
9 *173:10 0.000246812
10 *173:11 0.000246812

*RES
1 *173:11 *1084:B0 1.4
2 *173:10 *173:11 1.49139
3 *173:9 *173:10 1.4
4 *173:7 *173:9 0.124283
5 *173:6 *840:Q 1.4
6 *173:6 *173:7 1.4
7 *173:5 *173:6 0.372848
8 *173:4 *173:5 1.4
9 *173:3 *173:4 2.23709
10 *173:2 *173:3 1.4
11 *173:1 *173:2 0.124283
12 *840:D *173:1 1.4
*END

*D_NET *174 0.00139188

*CONN
*I *839:D I *C 88.015 36.685 *L 0.00181 *D SDFFQXL
*I *1110:A0 I *C 87.145 39.295 *L 0.00264 *D AOI22X1
*I *839:Q O *C 82.795 37.265 *L 0 *D SDFFQXL

*CAP
1 *174:1 2.22686e-05
2 *174:2 2.22686e-05
3 *174:3 7.1453e-05
4 *174:4 7.1453e-05
5 *174:5 8.90746e-05
6 *174:6 0.000222686
7 *174:7 0.000133612
8 *174:8 0.000357265
9 *174:10 0.000357265
10 *174:11 2.22686e-05
11 *174:12 2.22686e-05

*RES
1 *174:12 *839:Q 1.4
2 *174:11 *174:12 0.124288
3 *174:10 *174:11 1.4
4 *174:8 *174:10 1.86424
5 *174:7 *1110:A0 1.4
6 *174:6 *174:8 1.4
7 *174:6 *174:7 0.745727
8 *174:5 *174:6 0.497151
9 *174:4 *174:5 1.4
10 *174:3 *174:4 0.372848
11 *174:2 *174:3 1.4
12 *174:1 *174:2 0.124288
13 *839:D *174:1 1.4
*END

*D_NET *175 0.00189877

*CONN
*I *1146:A0 I *C 47.995 60.175 *L 0.00264 *D AOI22X1
*I *838:D I *C 47.415 62.785 *L 0.00183 *D SDFFQX1
*I *838:Q O *C 42.195 63.365 *L 0 *D SDFFQX1

*CAP
1 *175:2 0.000113082
2 *175:3 0.000113082
3 *175:4 0.000226686
4 *175:5 0.000302248
5 *175:6 7.5562e-05
6 *175:7 5.6541e-05
7 *175:8 0.000452328
8 *175:9 5.6541e-05
9 *175:10 0.000452328
10 *175:12 2.51873e-05
11 *175:14 2.51873e-05

*RES
1 *175:14 *838:Q 1.4
2 *175:12 *175:14 0.124289
3 *175:11 *838:D 1.4
4 *175:10 *175:12 1.4
5 *175:9 *175:11 1.4
6 *175:8 *175:10 1.98853
7 *175:7 *175:9 0.248566
8 *175:6 *175:8 1.4
9 *175:5 *175:7 1.4
10 *175:5 *175:6 0.372866
11 *175:4 *175:5 1.1186
12 *175:3 *175:4 1.4
13 *175:2 *175:3 0.497131
14 *175:1 *175:2 1.4
15 *1146:A0 *175:1 1.4
*END

*D_NET *176 0.00184721

*CONN
*I *1052:C1 I *C 90.915 68.295 *L 0.00176 *D AOI222XL
*I *837:D I *C 92.075 65.395 *L 0.00181 *D SDFFQXL
*I *837:Q O *C 86.855 64.815 *L 0 *D SDFFQXL

*CAP
1 *176:2 0.000137696
2 *176:3 0.000137696
3 *176:4 0.000280217
4 *176:5 0.000280217
5 *176:6 4.58988e-05
6 *176:7 0.000458988
7 *176:8 4.67028e-05
8 *176:9 0.000413089
9 *176:10 4.67028e-05

*RES
1 *176:11 *837:Q 1.4
2 *176:10 *837:D 1.4
3 *176:9 *176:11 1.4
4 *176:8 *176:10 0.248569
5 *176:7 *176:9 2.2372
6 *176:7 *176:8 1.4
7 *176:6 *176:7 0.248578
8 *176:5 *176:6 1.4
9 *176:4 *176:5 1.49141
10 *176:3 *176:4 1.4
11 *176:2 *176:3 0.745732
12 *176:1 *176:2 1.4
13 *1052:C1 *176:1 1.4
*END

*D_NET *177 0.00173623

*CONN
*I *836:D I *C 23.345 86.275 *L 0.00181 *D SDFFQXL
*I *836:Q O *C 28.565 85.695 *L 0 *D SDFFQXL
*I *1047:C1 I *C 28.855 80.765 *L 0.00176 *D AOI222XL

*CAP
1 *177:1 1.97144e-05
2 *177:2 1.97144e-05
3 *177:3 0.000411667
4 *177:4 0.000411667
5 *177:5 6.17031e-05
6 *177:6 0.000411354
7 *177:8 0.000349651
8 *177:9 2.53809e-05
9 *177:10 2.53809e-05

*RES
1 *177:11 *1047:C1 1.4
2 *177:10 *177:11 1.4
3 *177:9 *177:10 0.124283
4 *177:8 *177:9 1.4
5 *177:6 *177:8 2.11281
6 *177:6 *836:Q 1.4
7 *177:5 *177:6 0.372848
8 *177:4 *177:5 1.4
9 *177:3 *177:4 2.23709
10 *177:2 *177:3 1.4
11 *177:1 *177:2 0.124288
12 *836:D *177:1 1.4
*END

*D_NET *178 0.00118485

*CONN
*I *1348:B0 I *C 18.705 78.155 *L 0.00171 *D AO22XL
*I *835:D I *C 18.995 81.055 *L 0.00183 *D SDFFQX1
*I *835:Q O *C 13.775 80.475 *L 0 *D SDFFQX1

*CAP
1 *178:2 2.20927e-05
2 *178:3 2.20927e-05
3 *178:4 0.000159672
4 *178:5 0.000199101
5 *178:6 3.94288e-05
6 *178:7 0.000371234
7 *178:9 0.000371234

*RES
1 *178:10 *835:Q 1.4
2 *178:9 *178:10 1.4
3 *178:7 *178:9 2.2371
4 *178:6 *835:D 1.4
5 *178:5 *178:7 1.4
6 *178:5 *178:6 0.248576
7 *178:4 *178:5 0.9943
8 *178:3 *178:4 1.4
9 *178:2 *178:3 0.124289
10 *178:1 *178:2 1.4
11 *1348:B0 *178:1 1.4
*END

*D_NET *179 0.00226024

*CONN
*I *834:D I *C 14.355 62.785 *L 0.00183 *D SDFFQX1
*I *1115:A0 I *C 18.995 54.955 *L 0.00264 *D AOI22X1
*I *834:Q O *C 19.575 63.365 *L 0 *D SDFFQX1

*CAP
1 *179:1 4.72548e-05
2 *179:2 4.72548e-05
3 *179:3 0.000353482
4 *179:4 0.000353482
5 *179:5 0.000685195
6 *179:6 9.45097e-05
7 *179:7 0.000590685
8 *179:8 4.41853e-05
9 *179:10 4.41853e-05

*RES
1 *179:11 *834:Q 1.4
2 *179:10 *179:11 1.4
3 *179:8 *179:10 0.248577
4 *179:7 *1115:A0 1.4
5 *179:6 *179:8 1.4
6 *179:5 *179:7 3.10707
7 *179:5 *179:6 0.497131
8 *179:4 *179:5 1.4
9 *179:3 *179:4 1.98862
10 *179:2 *179:3 1.4
11 *179:1 *179:2 0.248565
12 *834:D *179:1 1.4
*END

*D_NET *180 0.001742

*CONN
*I *833:D I *C 42.775 39.295 *L 0.00183 *D SDFFQX1
*I *1349:B0 I *C 47.125 42.195 *L 0.00265 *D AOI22X1
*I *833:Q O *C 47.995 38.715 *L 0 *D SDFFQX1

*CAP
1 *180:1 2.51874e-05
2 *180:2 2.51874e-05
3 *180:3 0.000400519
4 *180:4 0.000400519
5 *180:5 0.000302249
6 *180:6 0.000226687
7 *180:7 7.55623e-05
8 *180:8 2.86085e-05
9 *180:9 0.000114434
10 *180:10 2.86085e-05
11 *180:11 0.000114434

*RES
1 *180:13 *833:Q 1.4
2 *180:12 *1349:B0 1.4
3 *180:11 *180:13 1.4
4 *180:10 *180:12 1.4
5 *180:9 *180:11 0.497155
6 *180:8 *180:10 0.124289
7 *180:7 *180:9 1.4
8 *180:6 *180:8 1.4
9 *180:5 *180:7 0.372863
10 *180:5 *180:6 1.11859
11 *180:4 *180:5 1.4
12 *180:3 *180:4 1.74004
13 *180:2 *180:3 1.4
14 *180:1 *180:2 0.124288
15 *833:D *180:1 1.4
*END

*D_NET *181 0.00200328

*CONN
*I *832:D I *C 59.885 28.855 *L 0.00183 *D SDFFQX1
*I *1104:B0 I *C 62.495 33.785 *L 0.00265 *D AOI22X1
*I *832:Q O *C 65.105 28.275 *L 0 *D SDFFQX1

*CAP
1 *181:1 4.80149e-05
2 *181:2 4.80149e-05
3 *181:3 0.000248741
4 *181:4 0.000248741
5 *181:5 0.000384119
6 *181:6 0.000360112
7 *181:7 2.40074e-05
8 *181:9 0.000248741
9 *181:10 0.000248741
10 *181:11 7.20223e-05
11 *181:12 7.20223e-05

*RES
1 *181:12 *832:Q 1.4
2 *181:11 *181:12 0.372848
3 *181:10 *181:11 1.4
4 *181:9 *181:10 1.11859
5 *181:7 *181:9 1.4
6 *181:6 *1104:B0 1.4
7 *181:5 *181:7 0.124283
8 *181:5 *181:6 1.86424
9 *181:4 *181:5 1.4
10 *181:3 *181:4 1.11859
11 *181:2 *181:3 1.4
12 *181:1 *181:2 0.248565
13 *832:D *181:1 1.4
*END

*D_NET *182 0.00136737

*CONN
*I *831:D I *C 74.095 26.245 *L 0.00183 *D SDFFQX1
*I *831:Q O *C 68.875 26.825 *L 0 *D SDFFQX1
*I *1050:A0 I *C 67.425 26.535 *L 0.00265 *D AOI21X1

*CAP
1 *182:1 2.40074e-05
2 *182:2 2.40074e-05
3 *182:3 0.000497482
4 *182:4 0.000635671
5 *182:5 2.40074e-05
6 *182:6 0.000138189
7 *182:7 2.40074e-05

*RES
1 *182:8 *1050:A0 1.4
2 *182:7 *831:Q 1.4
3 *182:6 *182:8 1.4
4 *182:5 *182:7 0.124283
5 *182:4 *182:6 0.621441
6 *182:4 *182:5 1.4
7 *182:3 *182:4 2.23719
8 *182:2 *182:3 1.4
9 *182:1 *182:2 0.124283
10 *831:D *182:1 1.4
*END

*D_NET *183 0.00203709

*CONN
*I *830:D I *C 9.425 26.245 *L 0.00183 *D SDFFQX1
*I *1176:B1 I *C 16.095 26.825 *L 0.00171 *D AOI22XL
*I *830:Q O *C 4.205 26.825 *L 0 *D SDFFQX1

*CAP
1 *183:1 4.68787e-05
2 *183:2 4.68787e-05
3 *183:3 0.000971668
4 *183:4 0.000545082
5 *183:5 0.000426586

*RES
1 *183:7 *830:Q 1.4
2 *183:6 *1176:B1 1.4
3 *183:5 *183:7 1.4
4 *183:4 *183:6 1.4
5 *183:3 *183:5 2.2372
6 *183:3 *183:4 2.85864
7 *183:2 *183:3 1.4
8 *183:1 *183:2 0.248565
9 *830:D *183:1 1.4
*END

*D_NET *184 0.00150305

*CONN
*I *1180:B0 I *C 35.815 26.535 *L 0.00265 *D AOI22X1
*I *829:Q O *C 34.655 26.825 *L 0 *D SDFFQX1
*I *829:D I *C 29.435 26.245 *L 0.00183 *D SDFFQX1

*CAP
1 *184:1 6.95164e-05
2 *184:2 6.95164e-05
3 *184:3 0.000102569
4 *184:4 0.000102569
5 *184:5 2.11568e-05
6 *184:6 9.47039e-05
7 *184:7 7.3547e-05
8 *184:8 0.000461563
9 *184:10 0.000461563
10 *184:11 2.31721e-05
11 *184:12 2.31721e-05

*RES
1 *184:12 *829:D 1.4
2 *184:11 *184:12 0.124288
3 *184:10 *184:11 1.4
4 *184:8 *184:10 2.23709
5 *184:7 *829:Q 1.4
6 *184:6 *184:8 1.4
7 *184:6 *184:7 0.372863
8 *184:5 *184:6 0.124288
9 *184:4 *184:5 1.4
10 *184:3 *184:4 0.497131
11 *184:2 *184:3 1.4
12 *184:1 *184:2 0.372864
13 *1180:B0 *184:1 1.4
*END

*D_NET *185 0.00144654

*CONN
*I *858:SI I *C 70.035 78.445 *L 0.00169 *D SDFFQXL
*I *1102:B1 I *C 65.685 80.475 *L 0.00171 *D AOI22XL
*I *858:Q O *C 63.365 79.025 *L 0 *D SDFFQXL

*CAP
1 *185:2 0.000364896
2 *185:3 0.000364896
3 *185:4 6.14113e-05
4 *185:5 0.000143293
5 *185:6 8.18817e-05
6 *185:7 0.000194611
7 *185:9 0.000194611
8 *185:10 2.04704e-05
9 *185:11 2.04704e-05

*RES
1 *185:11 *858:Q 1.4
2 *185:10 *185:11 0.124288
3 *185:9 *185:10 1.4
4 *185:7 *185:9 0.99431
5 *185:6 *1102:B1 1.4
6 *185:5 *185:7 1.4
7 *185:5 *185:6 0.497151
8 *185:4 *185:5 0.372863
9 *185:3 *185:4 1.4
10 *185:2 *185:3 1.86433
11 *185:1 *185:2 1.4
12 *858:SI *185:1 1.4
*END

*D_NET *186 0.00137947

*CONN
*I *1095:B1 I *C 81.345 79.025 *L 0.00171 *D AOI22XL
*I *857:Q O *C 88.885 80.475 *L 0 *D SDFFQXL
*I *857:SI I *C 82.215 81.055 *L 0.00169 *D SDFFQXL

*CAP
1 *186:2 2.12282e-05
2 *186:3 2.12282e-05
3 *186:4 9.84309e-05
4 *186:5 9.84309e-05
5 *186:6 4.24564e-05
6 *186:7 0.000530705
7 *186:8 0.000488248
8 *186:9 3.93724e-05
9 *186:11 3.93724e-05

*RES
1 *186:11 *857:SI 1.4
2 *186:10 *857:Q 1.4
3 *186:9 *186:11 0.248565
4 *186:8 *186:10 1.4
5 *186:7 *186:9 1.4
6 *186:7 *186:8 2.85864
7 *186:6 *186:7 0.248578
8 *186:5 *186:6 1.4
9 *186:4 *186:5 0.621413
10 *186:3 *186:4 1.4
11 *186:2 *186:3 0.124289
12 *186:1 *186:2 1.4
13 *1095:B1 *186:1 1.4
*END

*D_NET *187 0.00212396

*CONN
*I *1346:A0 I *C 83.955 49.445 *L 0.00156 *D AOI222XL
*I *856:Q O *C 81.055 47.705 *L 0 *D SDFFQXL
*I *856:SI I *C 74.385 47.125 *L 0.00169 *D SDFFQXL

*CAP
1 *187:1 2.22686e-05
2 *187:2 2.22686e-05
3 *187:3 0.000238177
4 *187:4 0.000238177
5 *187:5 0.000111343
6 *187:6 0.000178149
7 *187:8 6.68059e-05
8 *187:9 0.000599379
9 *187:10 0.000599379
10 *187:11 2.40074e-05
11 *187:12 2.40074e-05

*RES
1 *187:12 *856:SI 1.4
2 *187:11 *187:12 0.124283
3 *187:10 *187:11 1.4
4 *187:9 *187:10 2.85858
5 *187:8 *187:9 1.4
6 *187:6 *187:8 0.372863
7 *187:6 *856:Q 1.4
8 *187:5 *187:6 0.621439
9 *187:4 *187:5 1.4
10 *187:3 *187:4 1.24283
11 *187:2 *187:3 1.4
12 *187:1 *187:2 0.124288
13 *1346:A0 *187:1 1.4
*END

*D_NET *188 0.00173313

*CONN
*I *855:SI I *C 60.465 81.055 *L 0.00169 *D SDFFQXL
*I *1081:B1 I *C 56.985 84.245 *L 0.00171 *D AOI22XL
*I *855:Q O *C 53.795 80.475 *L 0 *D SDFFQXL

*CAP
1 *188:1 4.09408e-05
2 *188:2 4.09408e-05
3 *188:3 0.000291917
4 *188:4 0.000291917
5 *188:5 0.000204704
6 *188:6 0.000184234
7 *188:7 2.04704e-05
8 *188:9 0.000267591
9 *188:10 0.000267591
10 *188:11 6.14113e-05
11 *188:12 6.14113e-05

*RES
1 *188:12 *855:Q 1.4
2 *188:11 *188:12 0.372863
3 *188:10 *188:11 1.4
4 *188:9 *188:10 1.36718
5 *188:7 *188:9 1.4
6 *188:6 *1081:B1 1.4
7 *188:5 *188:7 0.124288
8 *188:5 *188:6 1.11859
9 *188:4 *188:5 1.4
10 *188:3 *188:4 1.49146
11 *188:2 *188:3 1.4
12 *188:1 *188:2 0.248576
13 *855:SI *188:1 1.4
*END

*D_NET *189 0.00219903

*CONN
*I *1110:B0 I *C 85.985 39.005 *L 0.00265 *D AOI22X1
*I *854:Q O *C 81.925 37.265 *L 0 *D SDFFQXL
*I *854:SI I *C 75.255 36.685 *L 0.00169 *D SDFFQXL

*CAP
1 *189:1 0.000133612
2 *189:2 0.000133612
3 *189:3 0.000333447
4 *189:4 0.000333447
5 *189:5 4.45373e-05
6 *189:7 4.45373e-05
7 *189:8 0.000587919
8 *189:9 0.000587919

*RES
1 *189:10 *854:SI 1.4
2 *189:9 *189:10 1.4
3 *189:8 *189:9 2.85856
4 *189:7 *189:8 1.4
5 *189:5 *189:7 0.248576
6 *189:5 *854:Q 1.4
7 *189:4 *189:5 1.4
8 *189:3 *189:4 1.73996
9 *189:2 *189:3 1.4
10 *189:1 *189:2 0.745727
11 *1110:B0 *189:1 1.4
*END

*D_NET *190 0.00227066

*CONN
*I *853:SI I *C 52.345 65.395 *L 0.00169 *D SDFFQXL
*I *1042:C1 I *C 49.445 68.295 *L 0.00176 *D AOI222XL
*I *853:Q O *C 45.675 64.815 *L 0 *D SDFFQXL

*CAP
1 *190:1 4.81128e-05
2 *190:2 4.81128e-05
3 *190:3 0.000197457
4 *190:4 0.000197457
5 *190:5 5.03747e-05
6 *190:6 0.000302248
7 *190:7 0.000251873
8 *190:8 0.000452328
9 *190:9 8.48115e-05
10 *190:10 0.000452328
11 *190:11 8.48115e-05
12 *190:12 5.03747e-05
13 *190:14 5.03747e-05

*RES
1 *190:14 *853:Q 1.4
2 *190:13 *1042:C1 1.4
3 *190:12 *190:14 0.248578
4 *190:11 *190:13 1.4
5 *190:10 *190:12 1.4
6 *190:9 *190:11 0.372849
7 *190:8 *190:10 1.98853
8 *190:7 *190:9 1.4
9 *190:6 *190:8 1.4
10 *190:6 *190:7 1.24289
11 *190:5 *190:6 0.248578
12 *190:4 *190:5 1.4
13 *190:3 *190:4 0.869983
14 *190:2 *190:3 1.4
15 *190:1 *190:2 0.248578
16 *853:SI *190:1 1.4
*END

*D_NET *191 0.00160721

*CONN
*I *1067:B0 I *C 79.605 70.325 *L 0.00265 *D AOI22X1
*I *852:SI I *C 82.215 68.005 *L 0.00169 *D SDFFQXL
*I *852:Q O *C 75.545 68.585 *L 0 *D SDFFQXL

*CAP
1 *191:1 0.000186811
2 *191:2 0.000186811
3 *191:3 0.000252444
4 *191:4 0.000206545
5 *191:5 4.58988e-05
6 *191:7 4.67028e-05
7 *191:9 4.67028e-05
8 *191:10 0.000317646
9 *191:11 0.000317646

*RES
1 *191:12 *852:Q 1.4
2 *191:11 *191:12 1.4
3 *191:10 *191:11 1.49146
4 *191:9 *191:10 1.4
5 *191:7 *191:9 0.248569
6 *191:6 *852:SI 1.4
7 *191:5 *191:7 1.4
8 *191:4 *191:6 1.4
9 *191:3 *191:5 0.248578
10 *191:3 *191:4 1.1186
11 *191:2 *191:3 1.4
12 *191:1 *191:2 0.994277
13 *1067:B0 *191:1 1.4
*END

*D_NET *192 0.00188395

*CONN
*I *1106:B0 I *C 21.605 78.735 *L 0.00265 *D AOI22X1
*I *851:Q O *C 19.865 75.255 *L 0 *D SDFFQXL
*I *851:SI I *C 13.195 75.835 *L 0.00169 *D SDFFQXL

*CAP
1 *192:1 0.000254032
2 *192:2 0.000254032
3 *192:3 0.000132556
4 *192:4 0.000640687
5 *192:5 2.36274e-05
6 *192:6 0.000508131
7 *192:7 2.36274e-05
8 *192:8 2.36274e-05
9 *192:10 2.36274e-05

*RES
1 *192:10 *851:SI 1.4
2 *192:8 *192:10 0.124283
3 *192:7 *851:Q 1.4
4 *192:6 *192:8 1.4
5 *192:5 *192:7 0.124283
6 *192:4 *192:6 2.85864
7 *192:4 *192:5 1.4
8 *192:3 *192:4 0.745732
9 *192:2 *192:3 1.4
10 *192:1 *192:2 1.36712
11 *1106:B0 *192:1 1.4
*END

*D_NET *193 0.00195029

*CONN
*I *850:SI I *C 14.935 68.005 *L 0.00169 *D SDFFQXL
*I *1040:A0 I *C 20.445 68.295 *L 0.00158 *D AOI21XL
*I *850:Q O *C 8.265 68.585 *L 0 *D SDFFQXL

*CAP
1 *193:1 2.36274e-05
2 *193:2 2.36274e-05
3 *193:3 0.000927891
4 *193:4 0.00041976
5 *193:5 0.000508131
6 *193:7 2.36274e-05
7 *193:9 2.36274e-05

*RES
1 *193:9 *850:Q 1.4
2 *193:7 *193:9 0.124283
3 *193:6 *1040:A0 1.4
4 *193:5 *193:7 1.4
5 *193:4 *193:6 1.4
6 *193:3 *193:5 2.85864
7 *193:3 *193:4 2.36149
8 *193:2 *193:3 1.4
9 *193:1 *193:2 0.124283
10 *850:SI *193:1 1.4
*END

*D_NET *194 0.00174164

*CONN
*I *1115:B0 I *C 20.155 54.665 *L 0.00265 *D AOI22X1
*I *849:Q O *C 17.255 54.375 *L 0 *D SDFFQXL
*I *849:SI I *C 10.585 54.955 *L 0.00169 *D SDFFQXL

*CAP
1 *194:1 4.72548e-05
2 *194:2 4.72548e-05
3 *194:3 4.41853e-05
4 *194:4 4.41853e-05
5 *194:5 4.72548e-05
6 *194:6 4.72548e-05
7 *194:7 0.000176741
8 *194:8 0.000684872
9 *194:9 2.36274e-05
10 *194:10 0.000508131
11 *194:11 2.36274e-05
12 *194:12 2.36274e-05
13 *194:14 2.36274e-05

*RES
1 *194:14 *849:SI 1.4
2 *194:12 *194:14 0.124283
3 *194:11 *849:Q 1.4
4 *194:10 *194:12 1.4
5 *194:9 *194:11 0.124283
6 *194:8 *194:10 2.85864
7 *194:8 *194:9 1.4
8 *194:7 *194:8 0.99431
9 *194:6 *194:7 1.4
10 *194:5 *194:6 0.248565
11 *194:4 *194:5 1.4
12 *194:3 *194:4 0.248577
13 *194:2 *194:3 1.4
14 *194:1 *194:2 0.248565
15 *1115:B0 *194:1 1.4
*END

*D_NET *195 0.00190944

*CONN
*I *1126:A I *C 50.895 47.125 *L 0.00178 *D AND2X1
*I *848:SI I *C 52.925 47.125 *L 0.00169 *D SDFFQXL
*I *848:Q O *C 59.595 47.705 *L 0 *D SDFFQXL

*CAP
1 *195:1 2.51874e-05
2 *195:2 2.51874e-05
3 *195:3 0.000197833
4 *195:4 0.000833504
5 *195:5 0.000635671
6 *195:6 2.40074e-05
7 *195:7 7.20223e-05
8 *195:8 2.40074e-05
9 *195:9 7.20223e-05

*RES
1 *195:9 *848:Q 1.4
2 *195:8 *848:SI 1.4
3 *195:7 *195:9 0.372848
4 *195:6 *195:8 0.124283
5 *195:5 *195:7 1.4
6 *195:4 *195:6 1.4
7 *195:4 *195:5 2.85863
8 *195:3 *195:4 0.87002
9 *195:2 *195:3 1.4
10 *195:1 *195:2 0.124288
11 *1126:A *195:1 1.4
*END

*D_NET *196 0.00240745

*CONN
*I *847:SI I *C 45.675 23.635 *L 0.00169 *D SDFFQXL
*I *847:Q O *C 52.345 23.055 *L 0 *D SDFFQXL
*I *1059:B0 I *C 47.705 28.565 *L 0.00274 *D AOI221X1

*CAP
1 *196:1 4.23137e-05
2 *196:2 4.23137e-05
3 *196:3 7.69271e-05
4 *196:4 7.69271e-05
5 *196:5 2.11568e-05
6 *196:6 0.00043624
7 *196:7 0.000512641
8 *196:8 0.000415083
9 *196:9 0.000512641
10 *196:10 0.000114434
11 *196:11 2.11687e-05
12 *196:12 0.000114434
13 *196:13 2.11687e-05

*RES
1 *196:14 *1059:B0 1.4
2 *196:13 *847:Q 1.4
3 *196:12 *196:14 1.4
4 *196:11 *196:13 0.124289
5 *196:10 *196:12 0.497155
6 *196:9 *196:11 1.4
7 *196:8 *196:10 1.4
8 *196:7 *196:9 2.48565
9 *196:6 *196:8 2.23718
10 *196:6 *196:7 1.4
11 *196:5 *196:6 0.124288
12 *196:4 *196:5 1.4
13 *196:3 *196:4 0.372848
14 *196:2 *196:3 1.4
15 *196:1 *196:2 0.248576
16 *847:SI *196:1 1.4
*END

*D_NET *197 0.00200609

*CONN
*I *846:SI I *C 74.965 31.465 *L 0.00169 *D SDFFQXL
*I *1210:A I *C 70.035 28.565 *L 0.00273 *D INVX1
*I *846:Q O *C 68.295 32.045 *L 0 *D SDFFQXL

*CAP
1 *197:1 2.40074e-05
2 *197:2 2.40074e-05
3 *197:3 0.000414568
4 *197:4 0.000414568
5 *197:5 0.000264082
6 *197:6 4.80149e-05
7 *197:7 0.000216067
8 *197:8 0.000221103
9 *197:9 5.52757e-05
10 *197:10 0.000221103
11 *197:11 5.52757e-05
12 *197:12 2.40074e-05
13 *197:14 2.40074e-05

*RES
1 *197:14 *846:Q 1.4
2 *197:13 *1210:A 1.4
3 *197:12 *197:14 0.124283
4 *197:11 *197:13 1.4
5 *197:10 *197:12 1.4
6 *197:9 *197:11 0.248576
7 *197:8 *197:10 0.994306
8 *197:7 *197:9 1.4
9 *197:6 *197:8 1.4
10 *197:5 *197:7 1.11854
11 *197:5 *197:6 0.248565
12 *197:4 *197:5 1.4
13 *197:3 *197:4 1.86432
14 *197:2 *197:3 1.4
15 *197:1 *197:2 0.124283
16 *846:SI *197:1 1.4
*END

*D_NET *198 0.00156259

*CONN
*I *1175:B1 I *C 12.905 28.275 *L 0.00171 *D AOI22XL
*I *845:SI I *C 10.875 28.855 *L 0.00169 *D SDFFQXL
*I *845:Q O *C 4.205 28.275 *L 0 *D SDFFQXL

*CAP
1 *198:1 2.34394e-05
2 *198:2 2.34394e-05
3 *198:3 0.000165895
4 *198:4 0.000710977
5 *198:5 2.34394e-05
6 *198:6 0.000545082
7 *198:7 2.34394e-05
8 *198:8 2.34394e-05
9 *198:10 2.34394e-05

*RES
1 *198:10 *845:Q 1.4
2 *198:8 *198:10 0.124283
3 *198:7 *845:SI 1.4
4 *198:6 *198:8 1.4
5 *198:5 *198:7 0.124283
6 *198:4 *198:6 2.85864
7 *198:4 *198:5 1.4
8 *198:3 *198:4 0.870021
9 *198:2 *198:3 1.4
10 *198:1 *198:2 0.124283
11 *1175:B1 *198:1 1.4
*END

*D_NET *199 0.00149369

*CONN
*I *1352:A0 I *C 36.105 23.635 *L 0.00158 *D AO22XL
*I *844:Q O *C 35.525 23.055 *L 0 *D SDFFQX1
*I *844:SI I *C 28.855 23.635 *L 0.00172 *D SDFFQX1

*CAP
1 *199:1 2.11568e-05
2 *199:2 2.11568e-05
3 *199:3 5.12847e-05
4 *199:4 0.000641059
5 *199:5 6.34705e-05
6 *199:6 0.000589774
7 *199:7 6.34705e-05
8 *199:8 2.11568e-05
9 *199:10 2.11568e-05

*RES
1 *199:10 *844:SI 1.4
2 *199:8 *199:10 0.124288
3 *199:7 *844:Q 1.4
4 *199:6 *199:8 1.4
5 *199:5 *199:7 0.372864
6 *199:4 *199:6 2.8585
7 *199:4 *199:5 1.4
8 *199:3 *199:4 0.248565
9 *199:2 *199:3 1.4
10 *199:1 *199:2 0.124288
11 *1352:A0 *199:1 1.4
*END

*D_NET *200 0.00124902

*CONN
*I *873:D I *C 93.235 83.665 *L 0.00183 *D SDFFQX1
*I *873:Q O *C 88.015 84.245 *L 0 *D SDFFQX1
*I *1045:C1 I *C 91.495 85.985 *L 0.00176 *D AOI222XL

*CAP
1 *200:1 1.96862e-05
2 *200:2 1.96862e-05
3 *200:3 4.24564e-05
4 *200:4 4.24564e-05
5 *200:5 1.96862e-05
6 *200:6 0.000137803
7 *200:7 0.000118117
8 *200:8 0.000339651
9 *200:9 8.49128e-05
10 *200:10 0.000339651
11 *200:11 8.49128e-05

*RES
1 *200:13 *1045:C1 1.4
2 *200:12 *873:Q 1.4
3 *200:11 *200:13 1.4
4 *200:10 *200:12 1.4
5 *200:9 *200:11 0.497155
6 *200:8 *200:10 1.98862
7 *200:7 *200:9 1.4
8 *200:6 *200:8 1.4
9 *200:6 *200:7 0.745696
10 *200:5 *200:6 0.124283
11 *200:4 *200:5 1.4
12 *200:3 *200:4 0.248578
13 *200:2 *200:3 1.4
14 *200:1 *200:2 0.124283
15 *873:D *200:1 1.4
*END

*D_NET *201 0.00105524

*CONN
*I *872:D I *C 99.905 78.445 *L 0.00181 *D SDFFQXL
*I *872:Q O *C 94.685 79.025 *L 0 *D SDFFQXL
*I *1096:B0 I *C 93.235 78.735 *L 0.00265 *D AOI22X1

*CAP
1 *201:1 1.96862e-05
2 *201:2 1.96862e-05
3 *201:3 0.000382107
4 *201:4 0.000488248
5 *201:5 1.96862e-05
6 *201:6 0.000106141
7 *201:7 1.96862e-05

*RES
1 *201:8 *1096:B0 1.4
2 *201:7 *872:Q 1.4
3 *201:6 *201:8 1.4
4 *201:5 *201:7 0.124283
5 *201:4 *201:6 0.621444
6 *201:4 *201:5 1.4
7 *201:3 *201:4 2.2372
8 *201:2 *201:3 1.4
9 *201:1 *201:2 0.124283
10 *872:D *201:1 1.4
*END

*D_NET *202 0.00179247

*CONN
*I *1076:A0 I *C 89.465 52.345 *L 0.00264 *D AOI22X1
*I *871:Q O *C 94.685 52.925 *L 0 *D SDFFQXL
*I *871:D I *C 99.905 52.345 *L 0.00181 *D SDFFQXL

*CAP
1 *202:1 2.33514e-05
2 *202:2 2.33514e-05
3 *202:3 0.000413089
4 *202:4 0.000413089
5 *202:5 4.67028e-05
6 *202:6 2.33514e-05
7 *202:7 2.33514e-05
8 *202:9 0.000413089
9 *202:10 0.000413089

*RES
1 *202:11 *871:D 1.4
2 *202:10 *202:11 1.4
3 *202:9 *202:10 2.2372
4 *202:7 *202:9 1.4
5 *202:6 *871:Q 1.4
6 *202:5 *202:7 0.124285
7 *202:5 *202:6 0.124285
8 *202:4 *202:5 1.4
9 *202:3 *202:4 2.2372
10 *202:2 *202:3 1.4
11 *202:1 *202:2 0.124285
12 *1076:A0 *202:1 1.4
*END

*D_NET *203 0.00125193

*CONN
*I *1081:A1 I *C 56.405 84.245 *L 0.00171 *D AOI22XL
*I *870:D I *C 56.695 86.275 *L 0.00181 *D SDFFQXL
*I *870:Q O *C 61.915 85.695 *L 0 *D SDFFQXL

*CAP
1 *203:1 8.18817e-05
2 *203:2 8.18817e-05
3 *203:3 2.43264e-05
4 *203:4 0.000462202
5 *203:5 0.000437876
6 *203:6 6.14113e-05
7 *203:7 2.04704e-05
8 *203:8 6.14113e-05
9 *203:9 2.04704e-05

*RES
1 *203:9 *870:Q 1.4
2 *203:8 *870:D 1.4
3 *203:7 *203:9 0.124288
4 *203:6 *203:8 0.372863
5 *203:5 *203:7 1.4
6 *203:4 *203:6 1.4
7 *203:4 *203:5 2.2372
8 *203:3 *203:4 0.124289
9 *203:2 *203:3 1.4
10 *203:1 *203:2 0.497151
11 *1081:A1 *203:1 1.4
*END

*D_NET *204 0.00184229

*CONN
*I *1063:B0 I *C 90.045 33.785 *L 0.00265 *D AOI22X1
*I *869:Q O *C 94.685 33.495 *L 0 *D SDFFQXL
*I *869:D I *C 99.905 34.075 *L 0.00181 *D SDFFQXL

*CAP
1 *204:1 4.45373e-05
2 *204:2 4.45373e-05
3 *204:3 0.000381083
4 *204:4 0.000381083
5 *204:5 2.22686e-05
6 *204:6 2.22686e-05
7 *204:7 0.000428718
8 *204:9 0.000428718
9 *204:10 4.45373e-05
10 *204:11 4.45373e-05

*RES
1 *204:11 *869:D 1.4
2 *204:10 *204:11 0.248576
3 *204:9 *204:10 1.4
4 *204:7 *204:9 2.23709
5 *204:6 *869:Q 1.4
6 *204:6 *204:7 1.4
7 *204:5 *204:6 0.124288
8 *204:4 *204:5 1.4
9 *204:3 *204:4 1.98852
10 *204:2 *204:3 1.4
11 *204:1 *204:2 0.248576
12 *1063:B0 *204:1 1.4
*END

*D_NET *205 0.00216958

*CONN
*I *1042:B0 I *C 48.7525 67.9325 *L 0.00163 *D AOI222XL
*I *868:D I *C 50.025 73.225 *L 0.00181 *D SDFFQXL
*I *868:Q O *C 44.805 73.805 *L 0 *D SDFFQXL

*CAP
1 *205:1 9.55382e-06
2 *205:2 1.56335e-05
3 *205:3 6.0797e-06
4 *205:4 5.6541e-05
5 *205:5 5.6541e-05
6 *205:6 0.000453372
7 *205:7 0.000503747
8 *205:8 5.03747e-05
9 *205:9 5.6541e-05
10 *205:10 0.000452328
11 *205:11 5.6541e-05
12 *205:12 0.000452328

*RES
1 *205:14 *868:Q 1.4
2 *205:13 *868:D 1.4
3 *205:12 *205:14 1.4
4 *205:11 *205:13 1.4
5 *205:10 *205:12 1.98853
6 *205:9 *205:11 0.248566
7 *205:8 *205:10 1.4
8 *205:7 *205:9 1.4
9 *205:7 *205:8 0.248578
10 *205:6 *205:7 2.2372
11 *205:5 *205:6 1.4
12 *205:4 *205:5 0.248566
13 *205:3 *205:4 1.4
14 *205:2 *205:3 0.0300007
15 *205:1 *205:2 0.047144
16 *1042:B0 *205:1 1.4
*END

*D_NET *206 0.00193418

*CONN
*I *1071:B0 I *C 90.045 63.075 *L 0.00265 *D AOI22X1
*I *867:Q O *C 94.685 64.815 *L 0 *D SDFFQXL
*I *867:D I *C 99.905 65.395 *L 0.00181 *D SDFFQXL

*CAP
1 *206:1 0.000116757
2 *206:2 0.000116757
3 *206:3 0.000367191
4 *206:4 0.000367191
5 *206:5 2.33514e-05
6 *206:6 2.33514e-05
7 *206:7 0.000413089
8 *206:9 0.000413089
9 *206:10 4.67028e-05
10 *206:11 4.67028e-05

*RES
1 *206:11 *867:D 1.4
2 *206:10 *206:11 0.248569
3 *206:9 *206:10 1.4
4 *206:7 *206:9 2.2372
5 *206:6 *867:Q 1.4
6 *206:6 *206:7 1.4
7 *206:5 *206:6 0.124285
8 *206:4 *206:5 1.4
9 *206:3 *206:4 1.98862
10 *206:2 *206:3 1.4
11 *206:1 *206:2 0.621423
12 *1071:B0 *206:1 1.4
*END

*D_NET *207 0.00165115

*CONN
*I *866:D I *C 20.445 83.665 *L 0.00181 *D SDFFQXL
*I *866:Q O *C 15.225 84.245 *L 0 *D SDFFQXL
*I *1097:A0 I *C 19.575 88.885 *L 0.00264 *D AOI22X1

*CAP
1 *207:1 3.94288e-05
2 *207:2 3.94288e-05
3 *207:3 8.24964e-05
4 *207:4 8.24964e-05
5 *207:5 7.88577e-05
6 *207:6 0.000394288
7 *207:7 0.000315431
8 *207:8 0.000288737
9 *207:9 2.06241e-05
10 *207:10 0.000288737
11 *207:11 2.06241e-05

*RES
1 *207:13 *1097:A0 1.4
2 *207:12 *866:Q 1.4
3 *207:11 *207:13 1.4
4 *207:10 *207:12 1.4
5 *207:9 *207:11 0.124283
6 *207:8 *207:10 1.73996
7 *207:7 *207:9 1.4
8 *207:6 *207:8 1.4
9 *207:6 *207:7 1.9886
10 *207:5 *207:6 0.497151
11 *207:4 *207:5 1.4
12 *207:3 *207:4 0.497132
13 *207:2 *207:3 1.4
14 *207:1 *207:2 0.248576
15 *866:D *207:1 1.4
*END

*D_NET *208 0.00142007

*CONN
*I *1124:AN I *C 20.735 65.395 *L 0.00174 *D NOR2BXL
*I *865:D I *C 17.255 65.395 *L 0.00183 *D SDFFQX1
*I *865:Q O *C 12.035 64.815 *L 0 *D SDFFQX1

*CAP
1 *208:2 0.000265112
2 *208:3 0.00066278
3 *208:5 0.000397668
4 *208:7 4.72548e-05
5 *208:8 4.72548e-05

*RES
1 *208:8 *865:Q 1.4
2 *208:7 *208:8 0.248565
3 *208:5 *208:7 1.4
4 *208:4 *865:D 1.4
5 *208:3 *208:5 2.2372
6 *208:3 *208:4 1.4
7 *208:2 *208:3 1.49146
8 *208:1 *208:2 1.4
9 *1124:AN *208:1 1.4
*END

*D_NET *209 0.00186192

*CONN
*I *1111:A0 I *C 25.085 52.345 *L 0.00264 *D AOI22X1
*I *864:D I *C 18.705 52.345 *L 0.00181 *D SDFFQXL
*I *864:Q O *C 13.485 52.925 *L 0 *D SDFFQXL

*CAP
1 *209:2 0.000486038
2 *209:3 0.000883706
3 *209:5 0.000397668
4 *209:7 4.72548e-05
5 *209:8 4.72548e-05

*RES
1 *209:8 *864:Q 1.4
2 *209:7 *209:8 0.248565
3 *209:5 *209:7 1.4
4 *209:4 *864:D 1.4
5 *209:3 *209:5 2.2372
6 *209:3 *209:4 1.4
7 *209:2 *209:3 2.73435
8 *209:1 *209:2 1.4
9 *1111:A0 *209:1 1.4
*END

*D_NET *210 0.00153365

*CONN
*I *863:D I *C 45.675 49.735 *L 0.00181 *D SDFFQXL
*I *1094:B0 I *C 43.645 47.415 *L 0.00265 *D AOI22X1
*I *863:Q O *C 40.455 49.155 *L 0 *D SDFFQXL

*CAP
1 *210:2 0.000114434
2 *210:3 0.000114434
3 *210:4 0.00010075
4 *210:5 0.00010075
5 *210:6 8.58254e-05
6 *210:7 0.000400519
7 *210:8 0.00010075
8 *210:9 0.000314693
9 *210:10 0.00010075
10 *210:11 5.03749e-05
11 *210:13 5.03749e-05

*RES
1 *210:13 *863:Q 1.4
2 *210:11 *210:13 0.248575
3 *210:10 *1094:B0 1.4
4 *210:9 *210:11 1.4
5 *210:8 *210:10 0.497151
6 *210:7 *210:9 1.36718
7 *210:7 *210:8 1.4
8 *210:6 *210:7 0.372866
9 *210:5 *210:6 1.4
10 *210:4 *210:5 0.497151
11 *210:3 *210:4 1.4
12 *210:2 *210:3 0.497155
13 *210:1 *210:2 1.4
14 *863:D *210:1 1.4
*END

*D_NET *211 0.00166717

*CONN
*I *862:D I *C 61.915 31.465 *L 0.00183 *D SDFFQX1
*I *1104:A0 I *C 61.335 34.075 *L 0.00264 *D AOI22X1
*I *862:Q O *C 56.695 32.045 *L 0 *D SDFFQX1

*CAP
1 *211:1 4.80149e-05
2 *211:2 4.80149e-05
3 *211:3 5.52757e-05
4 *211:4 5.52757e-05
5 *211:5 0.000120037
6 *211:6 0.000264082
7 *211:7 0.000144045
8 *211:8 0.000442206
9 *211:10 0.000442206
10 *211:11 2.40074e-05
11 *211:12 2.40074e-05

*RES
1 *211:12 *862:Q 1.4
2 *211:11 *211:12 0.124283
3 *211:10 *211:11 1.4
4 *211:8 *211:10 1.98861
5 *211:7 *1104:A0 1.4
6 *211:6 *211:8 1.4
7 *211:6 *211:7 0.745696
8 *211:5 *211:6 0.621413
9 *211:4 *211:5 1.4
10 *211:3 *211:4 0.248576
11 *211:2 *211:3 1.4
12 *211:1 *211:2 0.248565
13 *862:D *211:1 1.4
*END

*D_NET *212 0.00133808

*CONN
*I *861:D I *C 77.575 18.415 *L 0.00183 *D SDFFQX1
*I *861:Q O *C 72.355 17.835 *L 0 *D SDFFQX1
*I *1156:A I *C 70.615 18.125 *L 0.00162 *D NOR2XL

*CAP
1 *212:2 0.000277536
2 *212:3 0.000277536
3 *212:4 4.23373e-05
4 *212:5 4.23373e-05
5 *212:6 0.000176614
6 *212:7 0.000327997
7 *212:9 0.000151383
8 *212:11 2.11687e-05
9 *212:12 2.11687e-05

*RES
1 *212:12 *1156:A 1.4
2 *212:11 *212:12 0.124289
3 *212:9 *212:11 1.4
4 *212:8 *861:Q 1.4
5 *212:7 *212:9 0.745696
6 *212:7 *212:8 1.4
7 *212:6 *212:7 0.869979
8 *212:5 *212:6 1.4
9 *212:4 *212:5 0.248578
10 *212:3 *212:4 1.4
11 *212:2 *212:3 1.36711
12 *212:1 *212:2 1.4
13 *861:D *212:1 1.4
*END

*D_NET *213 0.00144242

*CONN
*I *860:D I *C 17.545 13.195 *L 0.00183 *D SDFFQX1
*I *1185:B0 I *C 16.675 16.095 *L 0.00265 *D AOI22X1
*I *860:Q O *C 12.325 12.615 *L 0 *D SDFFQX1

*CAP
1 *213:1 2.0507e-05
2 *213:2 2.0507e-05
3 *213:3 8.70747e-05
4 *213:4 8.70747e-05
5 *213:5 4.1014e-05
6 *213:6 0.000225577
7 *213:7 0.000184563
8 *213:8 0.000304761
9 *213:9 2.17687e-05
10 *213:10 0.000304761
11 *213:11 2.17687e-05
12 *213:12 6.1521e-05
13 *213:14 6.1521e-05

*RES
1 *213:14 *860:Q 1.4
2 *213:13 *1185:B0 1.4
3 *213:12 *213:14 0.37285
4 *213:11 *213:13 1.4
5 *213:10 *213:12 1.4
6 *213:9 *213:11 0.124289
7 *213:8 *213:10 1.74004
8 *213:7 *213:9 1.4
9 *213:6 *213:8 1.4
10 *213:6 *213:7 1.11855
11 *213:5 *213:6 0.248567
12 *213:4 *213:5 1.4
13 *213:3 *213:4 0.497155
14 *213:2 *213:3 1.4
15 *213:1 *213:2 0.124283
16 *860:D *213:1 1.4
*END

*D_NET *214 0.00151552

*CONN
*I *859:D I *C 36.105 18.415 *L 0.00183 *D SDFFQX1
*I *859:Q O *C 41.325 17.835 *L 0 *D SDFFQX1
*I *1154:AN I *C 40.745 21.315 *L 0.00178 *D NAND2BX1

*CAP
1 *214:1 4.23137e-05
2 *214:2 4.23137e-05
3 *214:3 0.000410278
4 *214:4 0.000461563
5 *214:5 5.12847e-05
6 *214:6 0.000253882
7 *214:8 0.000253882

*RES
1 *214:8 *1154:AN 1.4
2 *214:7 *859:Q 1.4
3 *214:6 *214:8 1.49146
4 *214:5 *214:7 1.4
5 *214:4 *214:6 1.4
6 *214:4 *214:5 0.248565
7 *214:3 *214:4 1.98852
8 *214:2 *214:3 1.4
9 *214:1 *214:2 0.248576
10 *859:D *214:1 1.4
*END

*D_NET *215 0.00219159

*CONN
*I *1103:B1 I *C 89.465 89.465 *L 0.00171 *D AOI22XL
*I *888:SI I *C 92.655 94.105 *L 0.00169 *D SDFFQXL
*I *888:Q O *C 99.325 94.685 *L 0 *D SDFFQXL

*CAP
1 *215:2 2.12282e-05
2 *215:3 2.12282e-05
3 *215:4 0.000334665
4 *215:5 0.000334665
5 *215:6 0.000212282
6 *215:7 0.00070053
7 *215:8 0.000488248
8 *215:9 1.96862e-05
9 *215:10 1.96862e-05
10 *215:11 1.96862e-05
11 *215:12 1.96862e-05

*RES
1 *215:12 *888:Q 1.4
2 *215:11 *888:SI 1.4
3 *215:10 *215:12 0.124283
4 *215:9 *215:11 0.124283
5 *215:8 *215:10 1.4
6 *215:7 *215:9 1.4
7 *215:7 *215:8 2.85864
8 *215:6 *215:7 1.24289
9 *215:5 *215:6 1.4
10 *215:4 *215:5 2.11281
11 *215:3 *215:4 1.4
12 *215:2 *215:3 0.124289
13 *215:1 *215:2 1.4
14 *1103:B1 *215:1 1.4
*END

*D_NET *216 0.00139489

*CONN
*I *887:SI I *C 95.555 88.885 *L 0.00169 *D SDFFQXL
*I *1088:B0 I *C 93.235 89.175 *L 0.00265 *D AOI22X1
*I *887:Q O *C 102.225 89.465 *L 0 *D SDFFQXL

*CAP
1 *216:1 1.96862e-05
2 *216:2 1.96862e-05
3 *216:3 0.000658074
4 *216:4 0.000488248
5 *216:5 0.000169826
6 *216:6 1.96862e-05
7 *216:8 1.96862e-05

*RES
1 *216:8 *887:Q 1.4
2 *216:7 *1088:B0 1.4
3 *216:6 *216:8 0.124283
4 *216:5 *216:7 1.4
5 *216:4 *216:6 1.4
6 *216:3 *216:5 0.99431
7 *216:3 *216:4 2.85864
8 *216:2 *216:3 1.4
9 *216:1 *216:2 0.124283
10 *887:SI *216:1 1.4
*END

*D_NET *217 0.00156217

*CONN
*I *886:SI I *C 91.495 57.565 *L 0.00169 *D SDFFQXL
*I *1078:B0 I *C 88.885 57.855 *L 0.00265 *D AOI22X1
*I *886:Q O *C 98.165 58.145 *L 0 *D SDFFQXL

*CAP
1 *217:1 2.33514e-05
2 *217:2 2.33514e-05
3 *217:3 0.000734381
4 *217:4 0.000527836
5 *217:5 0.000206545
6 *217:6 2.33514e-05
7 *217:8 2.33514e-05

*RES
1 *217:8 *886:Q 1.4
2 *217:7 *1078:B0 1.4
3 *217:6 *217:8 0.124285
4 *217:5 *217:7 1.4
5 *217:4 *217:6 1.4
6 *217:3 *217:5 1.1186
7 *217:3 *217:4 2.85864
8 *217:2 *217:3 1.4
9 *217:1 *217:2 0.124285
10 *886:SI *217:1 1.4
*END

*D_NET *218 0.00172108

*CONN
*I *885:SI I *C 48.575 83.665 *L 0.00169 *D SDFFQXL
*I *1080:B1 I *C 51.765 80.475 *L 0.00171 *D AOI22XL
*I *885:Q O *C 55.245 84.245 *L 0 *D SDFFQXL

*CAP
1 *218:1 2.05677e-05
2 *218:2 2.05677e-05
3 *218:3 0.00027919
4 *218:4 0.00027919
5 *218:5 0.000246812
6 *218:6 4.11354e-05
7 *218:7 0.000205677
8 *218:8 0.000293499
9 *218:10 0.000293499
10 *218:11 2.04704e-05
11 *218:12 2.04704e-05

*RES
1 *218:12 *885:Q 1.4
2 *218:11 *218:12 0.124288
3 *218:10 *218:11 1.4
4 *218:8 *218:10 1.49146
5 *218:7 *1080:B1 1.4
6 *218:6 *218:8 1.4
7 *218:5 *218:7 1.24283
8 *218:5 *218:6 0.248565
9 *218:4 *218:5 1.4
10 *218:3 *218:4 1.36711
11 *218:2 *218:3 1.4
12 *218:1 *218:2 0.124283
13 *885:SI *218:1 1.4
*END

*D_NET *219 0.00189728

*CONN
*I *884:SI I *C 90.045 39.295 *L 0.00169 *D SDFFQXL
*I *1100:B0 I *C 92.075 42.195 *L 0.00265 *D AOI22X1
*I *884:Q O *C 96.715 38.715 *L 0 *D SDFFQXL

*CAP
1 *219:1 4.45373e-05
2 *219:2 4.45373e-05
3 *219:3 0.000166724
4 *219:4 0.000166724
5 *219:5 8.90746e-05
6 *219:6 0.000267224
7 *219:7 0.000381083
8 *219:8 0.000178149
9 *219:9 0.000381083
10 *219:11 8.90746e-05
11 *219:12 8.90746e-05

*RES
1 *219:12 *884:Q 1.4
2 *219:11 *219:12 0.497151
3 *219:9 *219:11 1.4
4 *219:8 *1100:B0 1.4
5 *219:7 *219:9 1.98852
6 *219:6 *219:8 0.994302
7 *219:6 *219:7 1.4
8 *219:5 *219:6 0.497151
9 *219:4 *219:5 1.4
10 *219:3 *219:4 0.869979
11 *219:2 *219:3 1.4
12 *219:1 *219:2 0.248576
13 *884:SI *219:1 1.4
*END

*D_NET *220 0.00166115

*CONN
*I *883:SI I *C 44.225 94.105 *L 0.00169 *D SDFFQXL
*I *1109:B0 I *C 50.315 91.205 *L 0.00265 *D AOI22X1
*I *883:Q O *C 50.895 94.685 *L 0 *D SDFFQXL

*CAP
1 *220:2 0.000532999
2 *220:3 0.000532999
3 *220:4 0.000246812
4 *220:5 4.11354e-05
5 *220:6 0.000205677
6 *220:7 5.07618e-05
7 *220:9 5.07618e-05

*RES
1 *220:10 *883:Q 1.4
2 *220:9 *220:10 1.4
3 *220:7 *220:9 0.248566
4 *220:6 *1109:B0 1.4
5 *220:5 *220:7 1.4
6 *220:4 *220:6 1.24283
7 *220:4 *220:5 0.248565
8 *220:3 *220:4 1.4
9 *220:2 *220:3 2.60994
10 *220:1 *220:2 1.4
11 *883:SI *220:1 1.4
*END

*D_NET *221 0.00166201

*CONN
*I *1065:B0 I *C 86.565 70.325 *L 0.00265 *D AOI22X1
*I *882:Q O *C 86.855 73.805 *L 0 *D SDFFQXL
*I *882:SI I *C 93.525 73.225 *L 0.00169 *D SDFFQXL

*CAP
1 *221:1 0.000233514
2 *221:2 0.000233514
3 *221:3 2.29494e-05
4 *221:4 0.000550786
5 *221:5 4.67028e-05
6 *221:6 0.000527836
7 *221:7 4.67028e-05

*RES
1 *221:8 *882:SI 1.4
2 *221:7 *882:Q 1.4
3 *221:6 *221:8 1.4
4 *221:5 *221:7 0.248569
5 *221:4 *221:6 2.85864
6 *221:4 *221:5 1.4
7 *221:3 *221:4 0.124289
8 *221:2 *221:3 1.4
9 *221:1 *221:2 1.24285
10 *1065:B0 *221:1 1.4
*END

*D_NET *222 0.00138788

*CONN
*I *1097:B0 I *C 18.415 89.175 *L 0.00265 *D AOI22X1
*I *881:SI I *C 17.545 91.495 *L 0.00169 *D SDFFQXL
*I *881:Q O *C 10.875 90.915 *L 0 *D SDFFQXL

*CAP
1 *222:1 0.000118287
2 *222:2 0.000118287
3 *222:3 6.18723e-05
4 *222:4 0.000536226
5 *222:5 3.94288e-05
6 *222:6 0.000474354
7 *222:7 3.94288e-05

*RES
1 *222:8 *881:Q 1.4
2 *222:7 *881:SI 1.4
3 *222:6 *222:8 1.4
4 *222:5 *222:7 0.248576
5 *222:4 *222:6 2.85851
6 *222:4 *222:5 1.4
7 *222:3 *222:4 0.372849
8 *222:2 *222:3 1.4
9 *222:1 *222:2 0.745727
10 *1097:B0 *222:1 1.4
*END

*D_NET *223 0.00171895

*CONN
*I *880:SI I *C 18.705 70.615 *L 0.00169 *D SDFFQXL
*I *1125:A I *C 15.805 73.225 *L 0.00157 *D NAND2XL
*I *880:Q O *C 12.035 70.035 *L 0 *D SDFFQXL

*CAP
1 *223:1 4.72548e-05
2 *223:2 4.72548e-05
3 *223:3 0.000176741
4 *223:4 0.000176741
5 *223:5 0.000236274
6 *223:6 0.000165392
7 *223:7 7.08822e-05
8 *223:8 4.41853e-05
9 *223:9 0.00033139
10 *223:10 4.41853e-05
11 *223:11 0.00033139
12 *223:13 2.36274e-05
13 *223:15 2.36274e-05

*RES
1 *223:15 *880:Q 1.4
2 *223:13 *223:15 0.124283
3 *223:12 *1125:A 1.4
4 *223:11 *223:13 1.4
5 *223:10 *223:12 1.4
6 *223:9 *223:11 1.86433
7 *223:8 *223:10 0.248577
8 *223:7 *223:9 1.4
9 *223:6 *223:8 1.4
10 *223:5 *223:7 0.372848
11 *223:5 *223:6 0.869979
12 *223:4 *223:5 1.4
13 *223:3 *223:4 0.99431
14 *223:2 *223:3 1.4
15 *223:1 *223:2 0.248565
16 *880:SI *223:1 1.4
*END

*D_NET *224 0.00236576

*CONN
*I *1049:B0 I *C 24.215 49.445 *L 0.00265 *D AOI22X1
*I *879:SI I *C 18.705 47.125 *L 0.00169 *D SDFFQXL
*I *879:Q O *C 12.035 47.705 *L 0 *D SDFFQXL

*CAP
1 *224:1 0.000140636
2 *224:2 0.000140636
3 *224:3 0.000450285
4 *224:4 0.000995368
5 *224:5 4.68787e-05
6 *224:6 0.000545082
7 *224:7 4.68787e-05

*RES
1 *224:8 *879:Q 1.4
2 *224:7 *879:SI 1.4
3 *224:6 *224:8 1.4
4 *224:5 *224:7 0.248565
5 *224:4 *224:6 2.85864
6 *224:4 *224:5 1.4
7 *224:3 *224:4 2.36149
8 *224:2 *224:3 1.4
9 *224:1 *224:2 0.745696
10 *1049:B0 *224:1 1.4
*END

*D_NET *225 0.00208267

*CONN
*I *1009:A0 I *C 53.795 42.195 *L 0.00265 *D AOI21X1
*I *878:SI I *C 54.955 39.295 *L 0.00169 *D SDFFQXL
*I *878:Q O *C 48.285 38.715 *L 0 *D SDFFQXL

*CAP
1 *225:2 5.52757e-05
2 *225:3 5.52757e-05
3 *225:4 0.000240074
4 *225:5 0.000312097
5 *225:6 5.52757e-05
6 *225:7 7.20223e-05
7 *225:8 5.52757e-05
8 *225:9 0.000593499
9 *225:11 0.000593499
10 *225:13 2.51874e-05
11 *225:14 2.51874e-05

*RES
1 *225:14 *878:Q 1.4
2 *225:13 *225:14 0.124288
3 *225:11 *225:13 1.4
4 *225:10 *878:SI 1.4
5 *225:9 *225:11 2.61006
6 *225:8 *225:10 1.4
7 *225:7 *225:9 1.4
8 *225:6 *225:8 0.248576
9 *225:5 *225:7 0.372848
10 *225:5 *225:6 1.4
11 *225:4 *225:5 1.24283
12 *225:3 *225:4 1.4
13 *225:2 *225:3 0.248576
14 *225:1 *225:2 1.4
15 *1009:A0 *225:1 1.4
*END

*D_NET *226 0.001645

*CONN
*I *877:SI I *C 51.765 10.585 *L 0.00169 *D SDFFQXL
*I *1145:B0 I *C 48.865 12.905 *L 0.00265 *D AOI22X1
*I *877:Q O *C 45.095 11.165 *L 0 *D SDFFQXL

*CAP
1 *226:1 2.11568e-05
2 *226:2 2.11568e-05
3 *226:3 0.000230781
4 *226:4 0.000230781
5 *226:5 8.46274e-05
6 *226:6 8.46274e-05
7 *226:7 2.56424e-05
8 *226:8 0.000358993
9 *226:9 0.000105784
10 *226:10 0.000333351
11 *226:11 0.000105784
12 *226:12 2.11568e-05
13 *226:14 2.11568e-05

*RES
1 *226:14 *877:Q 1.4
2 *226:12 *226:14 0.124288
3 *226:11 *1145:B0 1.4
4 *226:10 *226:12 1.4
5 *226:9 *226:11 0.621441
6 *226:8 *226:10 1.61567
7 *226:8 *226:9 1.4
8 *226:7 *226:8 0.124283
9 *226:6 *226:7 1.4
10 *226:5 *226:6 0.497152
11 *226:4 *226:5 1.4
12 *226:3 *226:4 1.11854
13 *226:2 *226:3 1.4
14 *226:1 *226:2 0.124288
15 *877:SI *226:1 1.4
*END

*D_NET *227 0.0023556

*CONN
*I *1179:B0 I *C 70.325 16.095 *L 0.00262 *D OAI22X1
*I *876:Q O *C 74.385 12.615 *L 0 *D SDFFQXL
*I *876:SI I *C 81.055 13.195 *L 0.00169 *D SDFFQXL

*CAP
1 *227:2 0.000277536
2 *227:3 0.000277536
3 *227:4 0.000232855
4 *227:5 0.000232855
5 *227:6 7.56916e-05
6 *227:7 0.000623796
7 *227:8 0.000548104
8 *227:9 2.11687e-05
9 *227:10 2.24446e-05
10 *227:11 2.11687e-05
11 *227:12 2.24446e-05

*RES
1 *227:12 *876:SI 1.4
2 *227:11 *876:Q 1.4
3 *227:10 *227:12 0.124288
4 *227:9 *227:11 0.124289
5 *227:8 *227:10 1.4
6 *227:7 *227:9 1.4
7 *227:7 *227:8 2.8585
8 *227:6 *227:7 0.372848
9 *227:5 *227:6 1.4
10 *227:4 *227:5 1.36718
11 *227:3 *227:4 1.4
12 *227:2 *227:3 1.36711
13 *227:1 *227:2 1.4
14 *1179:B0 *227:1 1.4
*END

*D_NET *228 0.00153454

*CONN
*I *875:SI I *C 19.285 7.975 *L 0.00172 *D SDFFQX1
*I *1184:B0 I *C 16.965 10.875 *L 0.00265 *D AOI22X1
*I *875:Q O *C 12.615 7.395 *L 0 *D SDFFQX1

*CAP
1 *228:2 0.000174149
2 *228:3 0.000174149
3 *228:4 2.0507e-05
4 *228:5 0.00020507
5 *228:6 0.000184563
6 *228:7 0.00032653
7 *228:9 0.00032653
8 *228:10 6.1521e-05
9 *228:11 6.1521e-05

*RES
1 *228:11 *875:Q 1.4
2 *228:10 *228:11 0.37285
3 *228:9 *228:10 1.4
4 *228:7 *228:9 1.86433
5 *228:6 *1184:B0 1.4
6 *228:5 *228:7 1.4
7 *228:5 *228:6 1.11855
8 *228:4 *228:5 0.124283
9 *228:3 *228:4 1.4
10 *228:2 *228:3 0.99431
11 *228:1 *228:2 1.4
12 *875:SI *228:1 1.4
*END

*D_NET *229 0.0017232

*CONN
*I *1133:B0 I *C 44.805 12.905 *L 0.00274 *D AOI221X1
*I *874:SI I *C 43.645 10.585 *L 0.00172 *D SDFFQX1
*I *874:Q O *C 36.975 11.165 *L 0 *D SDFFQX1

*CAP
1 *229:1 0.000126941
2 *229:2 0.000126941
3 *229:3 0.000102569
4 *229:4 0.000692344
5 *229:5 4.23137e-05
6 *229:6 0.000589774
7 *229:7 4.23137e-05

*RES
1 *229:8 *874:Q 1.4
2 *229:7 *874:SI 1.4
3 *229:6 *229:8 1.4
4 *229:5 *229:7 0.248576
5 *229:4 *229:6 2.8585
6 *229:4 *229:5 1.4
7 *229:3 *229:4 0.497131
8 *229:2 *229:3 1.4
9 *229:1 *229:2 0.745729
10 *1133:B0 *229:1 1.4
*END

*D_NET *230 0.00171532

*CONN
*I *1101:A0 I *C 68.295 91.495 *L 0.00264 *D AOI22X1
*I *903:D I *C 65.975 94.105 *L 0.00183 *D SDFFQX1
*I *903:Q O *C 60.755 94.685 *L 0 *D SDFFQX1

*CAP
1 *230:2 2.43264e-05
2 *230:3 2.43264e-05
3 *230:4 0.000184234
4 *230:5 0.000184234
5 *230:6 0.000170285
6 *230:7 0.000608161
7 *230:9 0.000437876
8 *230:11 4.09408e-05
9 *230:12 4.09408e-05

*RES
1 *230:12 *903:Q 1.4
2 *230:11 *230:12 0.248576
3 *230:9 *230:11 1.4
4 *230:8 *903:D 1.4
5 *230:7 *230:9 2.2372
6 *230:7 *230:8 1.4
7 *230:6 *230:7 0.870021
8 *230:5 *230:6 1.4
9 *230:4 *230:5 1.11859
10 *230:3 *230:4 1.4
11 *230:2 *230:3 0.124289
12 *230:1 *230:2 1.4
13 *1101:A0 *230:1 1.4
*END

*D_NET *231 0.00144892

*CONN
*I *902:D I *C 69.745 88.885 *L 0.00181 *D SDFFQXL
*I *1091:A1 I *C 66.845 85.695 *L 0.00171 *D AOI22XL
*I *902:Q O *C 64.525 89.465 *L 0 *D SDFFQXL

*CAP
1 *231:1 2.04704e-05
2 *231:2 2.04704e-05
3 *231:3 0.000243264
4 *231:4 0.000243264
5 *231:5 0.000225175
6 *231:6 2.04704e-05
7 *231:7 0.000204704
8 *231:8 0.000194611
9 *231:10 0.000194611
10 *231:11 4.09408e-05
11 *231:12 4.09408e-05

*RES
1 *231:12 *902:Q 1.4
2 *231:11 *231:12 0.248576
3 *231:10 *231:11 1.4
4 *231:8 *231:10 0.99431
5 *231:7 *1091:A1 1.4
6 *231:6 *231:8 1.4
7 *231:5 *231:7 1.24288
8 *231:5 *231:6 0.124288
9 *231:4 *231:5 1.4
10 *231:3 *231:4 1.24289
11 *231:2 *231:3 1.4
12 *231:1 *231:2 0.124288
13 *902:D *231:1 1.4
*END

*D_NET *232 0.00210625

*CONN
*I *901:D I *C 70.905 62.785 *L 0.00181 *D SDFFQXL
*I *901:Q O *C 65.685 63.365 *L 0 *D SDFFQXL
*I *1072:A1 I *C 68.875 59.595 *L 0.00171 *D AOI22XL

*CAP
1 *232:1 7.21692e-05
2 *232:2 7.21692e-05
3 *232:3 0.000246574
4 *232:4 0.000246574
5 *232:5 0.000120282
6 *232:6 0.000336789
7 *232:7 0.000246574
8 *232:8 0.000216507
9 *232:9 0.000246574
10 *232:10 5.47942e-05
11 *232:11 9.62255e-05
12 *232:12 5.47942e-05
13 *232:13 9.62255e-05

*RES
1 *232:14 *1072:A1 1.4
2 *232:13 *901:Q 1.4
3 *232:12 *232:14 1.4
4 *232:11 *232:13 0.497155
5 *232:10 *232:12 0.248577
6 *232:9 *232:11 1.4
7 *232:8 *232:10 1.4
8 *232:7 *232:9 1.1186
9 *232:6 *232:8 1.1186
10 *232:6 *232:7 1.4
11 *232:5 *232:6 0.621444
12 *232:4 *232:5 1.4
13 *232:3 *232:4 1.1186
14 *232:2 *232:3 1.4
15 *232:1 *232:2 0.372866
16 *901:D *232:1 1.4
*END

*D_NET *233 0.00209197

*CONN
*I *1057:A1 I *C 57.565 73.8575 *L 0.00166 *D AOI32XL
*I *900:D I *C 57.855 78.445 *L 0.00181 *D SDFFQXL
*I *900:Q O *C 63.075 79.025 *L 0 *D SDFFQXL

*CAP
1 *233:1 4.56242e-06
2 *233:2 4.56242e-06
3 *233:3 8.21913e-05
4 *233:4 8.21913e-05
5 *233:5 0.000383109
6 *233:6 0.000383109
7 *233:7 9.73057e-05
8 *233:8 0.000535181
9 *233:9 0.000437876
10 *233:11 4.09408e-05
11 *233:13 4.09408e-05

*RES
1 *233:13 *900:Q 1.4
2 *233:11 *233:13 0.248576
3 *233:10 *900:D 1.4
4 *233:9 *233:11 1.4
5 *233:8 *233:10 1.4
6 *233:8 *233:9 2.2372
7 *233:7 *233:8 0.497155
8 *233:6 *233:7 1.4
9 *233:5 *233:6 1.98862
10 *233:4 *233:5 1.4
11 *233:3 *233:4 0.372866
12 *233:2 *233:3 1.4
13 *233:1 *233:2 0.023572
14 *1057:A1 *233:1 1.4
*END

*D_NET *234 0.00147511

*CONN
*I *899:D I *C 69.455 36.685 *L 0.00181 *D SDFFQXL
*I *1141:A0 I *C 64.235 39.295 *L 0.00264 *D AOI22X1
*I *899:Q O *C 64.235 37.265 *L 0 *D SDFFQXL

*CAP
1 *234:1 7.20223e-05
2 *234:2 7.20223e-05
3 *234:3 0.000497482
4 *234:4 0.000497482
5 *234:5 0.000168052
6 *234:6 0.000144045
7 *234:7 2.40074e-05

*RES
1 *234:7 *899:Q 1.4
2 *234:6 *1141:A0 1.4
3 *234:5 *234:7 0.124283
4 *234:5 *234:6 0.745696
5 *234:4 *234:5 1.4
6 *234:3 *234:4 2.23719
7 *234:2 *234:3 1.4
8 *234:1 *234:2 0.372848
9 *899:D *234:1 1.4
*END

*D_NET *235 0.00158003

*CONN
*I *1107:A1 I *C 55.825 90.915 *L 0.00171 *D AOI22XL
*I *898:D I *C 53.505 88.885 *L 0.00181 *D SDFFQXL
*I *898:Q O *C 48.285 89.465 *L 0 *D SDFFQXL

*CAP
1 *235:1 0.000102352
2 *235:2 0.000102352
3 *235:3 0.000194611
4 *235:4 0.000646723
5 *235:5 4.09408e-05
6 *235:6 0.000452111
7 *235:7 4.09408e-05

*RES
1 *235:8 *898:Q 1.4
2 *235:7 *898:D 1.4
3 *235:6 *235:8 1.4
4 *235:5 *235:7 0.248576
5 *235:4 *235:6 2.23712
6 *235:4 *235:5 1.4
7 *235:3 *235:4 0.99431
8 *235:2 *235:3 1.4
9 *235:1 *235:2 0.621439
10 *1107:A1 *235:1 1.4
*END

*D_NET *236 0.00230404

*CONN
*I *1043:B0 I *C 58.435 59.885 *L 0.00265 *D AOI22X1
*I *897:Q O *C 57.855 63.365 *L 0 *D SDFFQXL
*I *897:D I *C 63.075 62.785 *L 0.00181 *D SDFFQXL

*CAP
1 *236:2 0.000164383
2 *236:3 0.000164383
3 *236:4 0.000120282
4 *236:5 0.000120282
5 *236:6 0.000109588
6 *236:7 0.000109588
7 *236:8 0.000168395
8 *236:9 0.000192451
9 *236:10 2.40564e-05
10 *236:12 0.000493148
11 *236:13 0.000493148
12 *236:14 7.21692e-05
13 *236:15 7.21692e-05

*RES
1 *236:15 *897:D 1.4
2 *236:14 *236:15 0.372866
3 *236:13 *236:14 1.4
4 *236:12 *236:13 2.2372
5 *236:10 *236:12 1.4
6 *236:9 *897:Q 1.4
7 *236:9 *236:10 0.124289
8 *236:8 *236:9 0.870021
9 *236:7 *236:8 1.4
10 *236:6 *236:7 0.497155
11 *236:5 *236:6 1.4
12 *236:4 *236:5 0.621444
13 *236:3 *236:4 1.4
14 *236:2 *236:3 0.745732
15 *236:1 *236:2 1.4
16 *1043:B0 *236:1 1.4
*END

*D_NET *237 0.00163445

*CONN
*I *896:D I *C 9.425 78.445 *L 0.00183 *D SDFFQX1
*I *1134:A1 I *C 7.685 73.805 *L 0.00171 *D AOI22XL
*I *896:Q O *C 4.205 79.025 *L 0 *D SDFFQX1

*CAP
1 *237:1 2.16709e-05
2 *237:2 2.16709e-05
3 *237:3 0.000132556
4 *237:4 0.000132556
5 *237:5 0.000376082
6 *237:6 2.16709e-05
7 *237:7 0.000354411
8 *237:8 0.000247489
9 *237:10 0.000247489
10 *237:11 3.94288e-05
11 *237:12 3.94288e-05

*RES
1 *237:12 *896:Q 1.4
2 *237:11 *237:12 0.248576
3 *237:10 *237:11 1.4
4 *237:8 *237:10 1.4914
5 *237:7 *1134:A1 1.4
6 *237:6 *237:8 1.4
7 *237:5 *237:7 1.86424
8 *237:5 *237:6 0.124285
9 *237:4 *237:5 1.4
10 *237:3 *237:4 0.745732
11 *237:2 *237:3 1.4
12 *237:1 *237:2 0.124285
13 *896:D *237:1 1.4
*END

*D_NET *238 0.0014569

*CONN
*I *895:D I *C 9.425 65.395 *L 0.00183 *D SDFFQX1
*I *1140:A1 I *C 6.815 68.585 *L 0.00171 *D AOI22XL
*I *895:Q O *C 4.205 64.815 *L 0 *D SDFFQX1

*CAP
1 *238:1 2.36274e-05
2 *238:2 2.36274e-05
3 *238:3 0.000198834
4 *238:4 0.000198834
5 *238:5 0.000259902
6 *238:6 0.000236274
7 *238:7 2.36274e-05
8 *238:9 0.000198834
9 *238:10 0.000198834
10 *238:11 4.72548e-05
11 *238:12 4.72548e-05

*RES
1 *238:12 *895:Q 1.4
2 *238:11 *238:12 0.248565
3 *238:10 *238:11 1.4
4 *238:9 *238:10 1.1186
5 *238:7 *238:9 1.4
6 *238:6 *1140:A1 1.4
7 *238:5 *238:7 0.124283
8 *238:5 *238:6 1.24283
9 *238:4 *238:5 1.4
10 *238:3 *238:4 1.1186
11 *238:2 *238:3 1.4
12 *238:1 *238:2 0.124283
13 *895:D *238:1 1.4
*END

*D_NET *239 0.00193264

*CONN
*I *894:D I *C 9.425 49.735 *L 0.00183 *D SDFFQX1
*I *1351:B0 I *C 5.365 55.245 *L 0.00171 *D AO22XL
*I *894:Q O *C 4.205 49.155 *L 0 *D SDFFQX1

*CAP
1 *239:1 2.34394e-05
2 *239:2 2.34394e-05
3 *239:3 0.00030809
4 *239:4 0.00030809
5 *239:5 0.000494201
6 *239:6 0.000423883
7 *239:7 7.03181e-05
8 *239:8 2.20927e-05
9 *239:9 0.000118496
10 *239:10 2.20927e-05
11 *239:11 0.000118496

*RES
1 *239:13 *894:Q 1.4
2 *239:12 *1351:B0 1.4
3 *239:11 *239:13 1.4
4 *239:10 *239:12 1.4
5 *239:9 *239:11 0.621444
6 *239:8 *239:10 0.124289
7 *239:7 *239:9 1.4
8 *239:6 *239:8 1.4
9 *239:5 *239:7 0.372848
10 *239:5 *239:6 2.23709
11 *239:4 *239:5 1.4
12 *239:3 *239:4 1.61575
13 *239:2 *239:3 1.4
14 *239:1 *239:2 0.124283
15 *894:D *239:1 1.4
*END

*D_NET *240 0.00176223

*CONN
*I *1087:A1 I *C 57.855 49.155 *L 0.00171 *D AOI22XL
*I *893:Q O *C 57.275 52.925 *L 0 *D SDFFQXL
*I *893:D I *C 62.495 52.345 *L 0.00181 *D SDFFQXL

*CAP
1 *240:2 2.76379e-05
2 *240:3 2.76379e-05
3 *240:4 0.000312219
4 *240:5 0.000312219
5 *240:6 0.000493148
6 *240:7 0.000465751
7 *240:8 2.73971e-05
8 *240:9 4.81128e-05
9 *240:11 4.81128e-05

*RES
1 *240:11 *893:D 1.4
2 *240:10 *893:Q 1.4
3 *240:9 *240:11 0.248578
4 *240:8 *240:10 1.4
5 *240:7 *240:9 1.4
6 *240:6 *240:8 0.124289
7 *240:6 *240:7 2.11291
8 *240:5 *240:6 1.4
9 *240:4 *240:5 1.61569
10 *240:3 *240:4 1.4
11 *240:2 *240:3 0.124288
12 *240:1 *240:2 1.4
13 *1087:A1 *240:1 1.4
*END

*D_NET *241 0.00175505

*CONN
*I *892:D I *C 58.725 7.975 *L 0.00183 *D SDFFQX1
*I *1144:B1 I *C 55.245 11.165 *L 0.00171 *D AOI22XL
*I *892:Q O *C 53.505 7.395 *L 0 *D SDFFQX1

*CAP
1 *241:1 4.23373e-05
2 *241:2 4.23373e-05
3 *241:3 0.000302766
4 *241:4 0.000302766
5 *241:5 0.000105843
6 *241:6 0.000275193
7 *241:7 0.000169349
8 *241:8 0.000151383
9 *241:10 0.000151383
10 *241:11 0.000105843
11 *241:12 0.000105843

*RES
1 *241:12 *892:Q 1.4
2 *241:11 *241:12 0.621444
3 *241:10 *241:11 1.4
4 *241:8 *241:10 0.745696
5 *241:7 *1144:B1 1.4
6 *241:6 *241:8 1.4
7 *241:6 *241:7 0.99431
8 *241:5 *241:6 0.621444
9 *241:4 *241:5 1.4
10 *241:3 *241:4 1.49139
11 *241:2 *241:3 1.4
12 *241:1 *241:2 0.248578
13 *892:D *241:1 1.4
*END

*D_NET *242 0.00128934

*CONN
*I *891:D I *C 68.295 10.585 *L 0.00183 *D SDFFQX1
*I *1060:A0 I *C 65.975 12.905 *L 0.00264 *D AOI221X1
*I *891:Q O *C 63.075 11.165 *L 0 *D SDFFQX1

*CAP
1 *242:1 2.11687e-05
2 *242:2 2.11687e-05
3 *242:3 0.000201844
4 *242:4 0.000201844
5 *242:5 4.23373e-05
6 *242:6 0.000148181
7 *242:7 0.000105843
8 *242:8 0.000252305
9 *242:10 0.000252305
10 *242:11 2.11687e-05
11 *242:12 2.11687e-05

*RES
1 *242:12 *891:Q 1.4
2 *242:11 *242:12 0.124289
3 *242:10 *242:11 1.4
4 *242:8 *242:10 1.24283
5 *242:7 *1060:A0 1.4
6 *242:6 *242:8 1.4
7 *242:6 *242:7 0.621444
8 *242:5 *242:6 0.248578
9 *242:4 *242:5 1.4
10 *242:3 *242:4 0.994261
11 *242:2 *242:3 1.4
12 *242:1 *242:2 0.124289
13 *891:D *242:1 1.4
*END

*D_NET *243 0.00136039

*CONN
*I *890:D I *C 9.425 7.975 *L 0.00183 *D SDFFQX1
*I *1183:B0 I *C 9.135 10.875 *L 0.00265 *D AOI22X1
*I *890:Q O *C 4.205 7.395 *L 0 *D SDFFQX1

*CAP
1 *243:1 2.0507e-05
2 *243:2 2.0507e-05
3 *243:3 4.35373e-05
4 *243:4 4.35373e-05
5 *243:5 0.00020507
6 *243:6 0.000184563
7 *243:7 2.0507e-05
8 *243:8 2.17687e-05
9 *243:9 0.000348299
10 *243:10 2.17687e-05
11 *243:11 0.000348299
12 *243:13 4.1014e-05
13 *243:15 4.1014e-05

*RES
1 *243:15 *890:Q 1.4
2 *243:13 *243:15 0.248567
3 *243:12 *1183:B0 1.4
4 *243:11 *243:13 1.4
5 *243:10 *243:12 1.4
6 *243:9 *243:11 1.98862
7 *243:8 *243:10 0.124289
8 *243:7 *243:9 1.4
9 *243:6 *243:8 1.4
10 *243:5 *243:7 0.124283
11 *243:5 *243:6 1.11855
12 *243:4 *243:5 1.4
13 *243:3 *243:4 0.248578
14 *243:2 *243:3 1.4
15 *243:1 *243:2 0.124283
16 *890:D *243:1 1.4
*END

*D_NET *244 0.0017694

*CONN
*I *889:D I *C 34.075 7.975 *L 0.00183 *D SDFFQX1
*I *1135:A0 I *C 33.785 13.195 *L 0.00264 *D AOI22X1
*I *889:Q O *C 28.855 7.395 *L 0 *D SDFFQX1

*CAP
1 *244:2 2.56424e-05
2 *244:3 2.56424e-05
3 *244:4 0.000423137
4 *244:5 0.000380823
5 *244:6 4.23137e-05
6 *244:8 0.00043592
7 *244:9 0.00043592

*RES
1 *244:10 *889:Q 1.4
2 *244:9 *244:10 1.4
3 *244:8 *244:9 2.11281
4 *244:6 *244:8 1.4
5 *244:5 *1135:A0 1.4
6 *244:4 *244:6 0.248576
7 *244:4 *244:5 2.23719
8 *244:3 *244:4 1.4
9 *244:2 *244:3 0.124283
10 *244:1 *244:2 1.4
11 *889:D *244:1 1.4
*END

*D_NET *245 0.00214016

*CONN
*I *918:SI I *C 71.485 96.715 *L 0.00169 *D SDFFQXL
*I *918:Q O *C 64.815 96.135 *L 0 *D SDFFQXL
*I *1101:B0 I *C 69.455 91.205 *L 0.00265 *D AOI22X1

*CAP
1 *245:2 4.86529e-05
2 *245:3 4.86529e-05
3 *245:4 4.09408e-05
4 *245:5 0.000388938
5 *245:6 0.000510855
6 *245:7 0.000347997
7 *245:8 0.000510855
8 *245:9 0.000121632
9 *245:11 0.000121632

*RES
1 *245:13 *1101:B0 1.4
2 *245:11 *245:13 1.4
3 *245:10 *918:Q 1.4
4 *245:9 *245:11 0.621444
5 *245:8 *245:10 1.4
6 *245:7 *245:9 1.4
7 *245:6 *245:8 2.61006
8 *245:5 *245:7 2.11289
9 *245:5 *245:6 1.4
10 *245:4 *245:5 0.248576
11 *245:3 *245:4 1.4
12 *245:2 *245:3 0.248578
13 *245:1 *245:2 1.4
14 *918:SI *245:1 1.4
*END

*D_NET *246 0.00182567

*CONN
*I *1091:B1 I *C 66.265 85.695 *L 0.00171 *D AOI22XL
*I *917:SI I *C 69.745 86.275 *L 0.00169 *D SDFFQXL
*I *917:Q O *C 76.415 85.695 *L 0 *D SDFFQXL

*CAP
1 *246:1 2.04704e-05
2 *246:2 2.04704e-05
3 *246:3 0.000291917
4 *246:4 0.000851425
5 *246:5 0.000559508
6 *246:6 2.04704e-05
7 *246:7 2.04704e-05
8 *246:8 2.04704e-05
9 *246:9 2.04704e-05

*RES
1 *246:9 *917:Q 1.4
2 *246:8 *917:SI 1.4
3 *246:7 *246:9 0.124288
4 *246:6 *246:8 0.124288
5 *246:5 *246:7 1.4
6 *246:4 *246:6 1.4
7 *246:4 *246:5 2.85864
8 *246:3 *246:4 1.49146
9 *246:2 *246:3 1.4
10 *246:1 *246:2 0.124288
11 *1091:B1 *246:1 1.4
*END

*D_NET *247 0.00209823

*CONN
*I *916:SI I *C 74.095 57.565 *L 0.00169 *D SDFFQXL
*I *1072:B1 I *C 69.455 59.595 *L 0.00171 *D AOI22XL
*I *916:Q O *C 67.425 58.145 *L 0 *D SDFFQXL

*CAP
1 *247:1 2.40564e-05
2 *247:2 2.40564e-05
3 *247:3 0.000356162
4 *247:4 0.000356162
5 *247:5 0.000216507
6 *247:6 0.000192451
7 *247:7 2.40564e-05
8 *247:8 8.21913e-05
9 *247:9 0.000273971
10 *247:10 8.21913e-05
11 *247:11 0.000273971
12 *247:13 9.62255e-05
13 *247:15 9.62255e-05

*RES
1 *247:15 *916:Q 1.4
2 *247:13 *247:15 0.497155
3 *247:12 *1072:B1 1.4
4 *247:11 *247:13 1.4
5 *247:10 *247:12 1.4
6 *247:9 *247:11 1.24289
7 *247:8 *247:10 0.372866
8 *247:7 *247:9 1.4
9 *247:6 *247:8 1.4
10 *247:5 *247:7 0.124289
11 *247:5 *247:6 0.99431
12 *247:4 *247:5 1.4
13 *247:3 *247:4 1.61575
14 *247:2 *247:3 1.4
15 *247:1 *247:2 0.124289
16 *916:SI *247:1 1.4
*END

*D_NET *248 0.002002

*CONN
*I *915:SI I *C 61.915 75.835 *L 0.00169 *D SDFFQXL
*I *915:Q O *C 55.245 75.255 *L 0 *D SDFFQXL
*I *1057:B1 I *C 58.435 73.515 *L 0.00177 *D AOI32XL

*CAP
1 *248:1 4.81128e-05
2 *248:2 4.81128e-05
3 *248:3 0.000410956
4 *248:4 0.000410956
5 *248:5 9.62255e-05
6 *248:6 0.000240564
7 *248:7 0.000219177
8 *248:8 0.000144338
9 *248:9 0.000219177
10 *248:10 8.21913e-05
11 *248:12 8.21913e-05

*RES
1 *248:14 *1057:B1 1.4
2 *248:12 *248:14 1.4
3 *248:11 *915:Q 1.4
4 *248:10 *248:12 0.372866
5 *248:9 *248:11 1.4
6 *248:8 *248:10 1.4
7 *248:7 *248:9 0.99431
8 *248:6 *248:8 0.745732
9 *248:6 *248:7 1.4
10 *248:5 *248:6 0.497155
11 *248:4 *248:5 1.4
12 *248:3 *248:4 1.86433
13 *248:2 *248:3 1.4
14 *248:1 *248:2 0.248578
15 *915:SI *248:1 1.4
*END

*D_NET *249 0.00216465

*CONN
*I *914:SI I *C 74.095 44.515 *L 0.00169 *D SDFFQXL
*I *1123:A I *C 70.615 47.125 *L 0.00157 *D NAND2XL
*I *914:Q O *C 67.425 43.935 *L 0 *D SDFFQXL

*CAP
1 *249:1 4.80149e-05
2 *249:2 4.80149e-05
3 *249:3 0.000221103
4 *249:4 0.000221103
5 *249:5 2.40074e-05
6 *249:6 0.000168052
7 *249:7 0.000144045
8 *249:8 0.000414568
9 *249:9 0.000110551
10 *249:10 0.000414568
11 *249:11 0.000110551
12 *249:12 0.000120037
13 *249:14 0.000120037

*RES
1 *249:14 *914:Q 1.4
2 *249:13 *1123:A 1.4
3 *249:12 *249:14 0.621413
4 *249:11 *249:13 1.4
5 *249:10 *249:12 1.4
6 *249:9 *249:11 0.497153
7 *249:8 *249:10 1.86432
8 *249:7 *249:9 1.4
9 *249:6 *249:8 1.4
10 *249:6 *249:7 0.745696
11 *249:5 *249:6 0.124283
12 *249:4 *249:5 1.4
13 *249:3 *249:4 0.994306
14 *249:2 *249:3 1.4
15 *249:1 *249:2 0.248565
16 *914:SI *249:1 1.4
*END

*D_NET *250 0.00181501

*CONN
*I *913:SI I *C 59.595 94.105 *L 0.00169 *D SDFFQXL
*I *1107:B1 I *C 56.405 90.915 *L 0.00171 *D AOI22XL
*I *913:Q O *C 52.925 94.685 *L 0 *D SDFFQXL

*CAP
1 *250:1 4.09408e-05
2 *250:2 4.09408e-05
3 *250:3 0.000267591
4 *250:4 0.000267591
5 *250:5 4.09408e-05
6 *250:6 0.000266115
7 *250:7 0.000291917
8 *250:8 0.000225175
9 *250:9 0.000291917
10 *250:11 4.09408e-05
11 *250:12 4.09408e-05

*RES
1 *250:12 *913:Q 1.4
2 *250:11 *250:12 0.248576
3 *250:9 *250:11 1.4
4 *250:8 *1107:B1 1.4
5 *250:7 *250:9 1.49146
6 *250:6 *250:8 1.36717
7 *250:6 *250:7 1.4
8 *250:5 *250:6 0.248576
9 *250:4 *250:5 1.4
10 *250:3 *250:4 1.36718
11 *250:2 *250:3 1.4
12 *250:1 *250:2 0.248576
13 *913:SI *250:1 1.4
*END

*D_NET *251 0.00190578

*CONN
*I *1143:B0 I *C 59.885 57.275 *L 0.00171 *D AO22XL
*I *912:Q O *C 60.175 59.595 *L 0 *D SDFFQXL
*I *912:SI I *C 66.845 60.175 *L 0.00169 *D SDFFQXL

*CAP
1 *251:2 2.73971e-05
2 *251:3 2.73971e-05
3 *251:4 0.000192451
4 *251:5 0.000192451
5 *251:6 5.47942e-05
6 *251:7 5.47942e-05
7 *251:8 4.81128e-05
8 *251:9 4.81128e-05
9 *251:11 0.000630133
10 *251:12 0.000630133

*RES
1 *251:13 *912:SI 1.4
2 *251:12 *251:13 1.4
3 *251:11 *251:12 2.85864
4 *251:9 *251:11 1.4
5 *251:8 *912:Q 1.4
6 *251:8 *251:9 0.248578
7 *251:7 *251:8 1.4
8 *251:6 *251:7 0.248577
9 *251:5 *251:6 1.4
10 *251:4 *251:5 0.99431
11 *251:3 *251:4 1.4
12 *251:2 *251:3 0.124289
13 *251:1 *251:2 1.4
14 *1143:B0 *251:1 1.4
*END

*D_NET *252 0.00205573

*CONN
*I *911:SI I *C 11.165 81.055 *L 0.00169 *D SDFFQXL
*I *1134:B1 I *C 7.105 73.805 *L 0.00171 *D AOI22XL
*I *911:Q O *C 4.495 80.475 *L 0 *D SDFFQXL

*CAP
1 *252:2 0.000288737
2 *252:3 0.000288737
3 *252:4 3.94288e-05
4 *252:5 0.000553512
5 *252:6 0.000185617
6 *252:7 0.000514083
7 *252:8 0.000185617

*RES
1 *252:10 *911:Q 1.4
2 *252:8 *252:10 1.4
3 *252:7 *1134:B1 1.4
4 *252:6 *252:8 1.11855
5 *252:5 *252:7 2.85854
6 *252:5 *252:6 1.4
7 *252:4 *252:5 0.248576
8 *252:3 *252:4 1.4
9 *252:2 *252:3 1.73996
10 *252:1 *252:2 1.4
11 *911:SI *252:1 1.4
*END

*D_NET *253 0.00148574

*CONN
*I *910:SI I *C 10.875 70.615 *L 0.00169 *D SDFFQXL
*I *910:Q O *C 4.205 70.035 *L 0 *D SDFFQXL
*I *1140:B1 I *C 6.235 68.585 *L 0.00171 *D AOI22XL

*CAP
1 *253:1 2.36274e-05
2 *253:2 2.36274e-05
3 *253:3 0.000375575
4 *253:4 0.000375575
5 *253:5 7.08822e-05
6 *253:6 0.000189019
7 *253:7 0.000132556
8 *253:8 0.000118137
9 *253:9 0.000132556
10 *253:10 2.20927e-05
11 *253:12 2.20927e-05

*RES
1 *253:14 *1140:B1 1.4
2 *253:12 *253:14 1.4
3 *253:11 *910:Q 1.4
4 *253:10 *253:12 0.124289
5 *253:9 *253:11 1.4
6 *253:8 *253:10 1.4
7 *253:7 *253:9 0.745732
8 *253:6 *253:8 0.621413
9 *253:6 *253:7 1.4
10 *253:5 *253:6 0.372848
11 *253:4 *253:5 1.4
12 *253:3 *253:4 2.11291
13 *253:2 *253:3 1.4
14 *253:1 *253:2 0.124283
15 *910:SI *253:1 1.4
*END

*D_NET *254 0.00144156

*CONN
*I *909:SI I *C 10.875 52.345 *L 0.00169 *D SDFFQXL
*I *1351:A0 I *C 6.815 54.955 *L 0.00158 *D AO22XL
*I *909:Q O *C 4.205 52.925 *L 0 *D SDFFQXL

*CAP
1 *254:2 0.000309297
2 *254:3 0.000309297
3 *254:4 4.72548e-05
4 *254:5 0.000212647
5 *254:6 0.000165392
6 *254:7 0.000198834
7 *254:9 0.000198834

*RES
1 *254:10 *909:Q 1.4
2 *254:9 *254:10 1.4
3 *254:7 *254:9 1.1186
4 *254:6 *1351:A0 1.4
5 *254:5 *254:7 1.4
6 *254:5 *254:6 0.869979
7 *254:4 *254:5 0.248565
8 *254:3 *254:4 1.4
9 *254:2 *254:3 1.74004
10 *254:1 *254:2 1.4
11 *909:SI *254:1 1.4
*END

*D_NET *255 0.00187656

*CONN
*I *1087:B1 I *C 58.435 49.155 *L 0.00171 *D AOI22XL
*I *908:Q O *C 59.595 49.155 *L 0 *D SDFFQXL
*I *908:SI I *C 66.265 49.735 *L 0.00169 *D SDFFQXL

*CAP
1 *255:1 9.60298e-05
2 *255:2 9.60298e-05
3 *255:3 0.000110551
4 *255:4 0.000110551
5 *255:5 4.80149e-05
6 *255:6 9.60298e-05
7 *255:7 0.000635671
8 *255:8 4.80149e-05
9 *255:9 0.000635671

*RES
1 *255:11 *908:SI 1.4
2 *255:9 *255:11 1.4
3 *255:8 *908:Q 1.4
4 *255:7 *255:9 2.85863
5 *255:6 *255:8 0.248565
6 *255:6 *255:7 1.4
7 *255:5 *255:6 0.248565
8 *255:4 *255:5 1.4
9 *255:3 *255:4 0.497153
10 *255:2 *255:3 1.4
11 *255:1 *255:2 0.497131
12 *1087:B1 *255:1 1.4
*END

*D_NET *256 0.00209203

*CONN
*I *907:SI I *C 64.815 5.365 *L 0.00169 *D SDFFQXL
*I *1147:B1 I *C 60.755 11.165 *L 0.00171 *D AOI22XL
*I *907:Q O *C 58.145 5.945 *L 0 *D SDFFQXL

*CAP
1 *256:1 2.11687e-05
2 *256:2 2.11687e-05
3 *256:3 0.000353227
4 *256:4 0.000353227
5 *256:5 6.3506e-05
6 *256:6 0.000444542
7 *256:7 0.000381036
8 *256:8 0.000227075
9 *256:10 0.000227075

*RES
1 *256:11 *907:Q 1.4
2 *256:10 *256:11 1.4
3 *256:8 *256:10 1.11854
4 *256:7 *1147:B1 1.4
5 *256:6 *256:8 1.4
6 *256:6 *256:7 2.2372
7 *256:5 *256:6 0.372866
8 *256:4 *256:5 1.4
9 *256:3 *256:4 1.73996
10 *256:2 *256:3 1.4
11 *256:1 *256:2 0.124289
12 *907:SI *256:1 1.4
*END

*D_NET *257 0.00238839

*CONN
*I *906:SI I *C 73.225 5.365 *L 0.00169 *D SDFFQXL
*I *1060:B0 I *C 67.425 12.905 *L 0.00274 *D AOI221X1
*I *906:Q O *C 66.555 5.945 *L 0 *D SDFFQXL

*CAP
1 *257:1 2.11687e-05
2 *257:2 2.11687e-05
3 *257:3 0.000504611
4 *257:4 0.000504611
5 *257:5 8.46747e-05
6 *257:6 0.000571554
7 *257:7 0.000486879
8 *257:8 7.56916e-05
9 *257:10 7.56916e-05
10 *257:11 2.11687e-05
11 *257:12 2.11687e-05

*RES
1 *257:12 *906:Q 1.4
2 *257:11 *257:12 0.124289
3 *257:10 *257:11 1.4
4 *257:8 *257:10 0.372848
5 *257:7 *1060:B0 1.4
6 *257:6 *257:8 1.4
7 *257:6 *257:7 2.85864
8 *257:5 *257:6 0.497155
9 *257:4 *257:5 1.4
10 *257:3 *257:4 2.48565
11 *257:2 *257:3 1.4
12 *257:1 *257:2 0.124289
13 *906:SI *257:1 1.4
*END

*D_NET *258 0.00171121

*CONN
*I *1182:B0 I *C 4.785 16.095 *L 0.00265 *D AOI22X1
*I *905:SI I *C 10.875 13.195 *L 0.00169 *D SDFFQXL
*I *905:Q O *C 4.205 12.615 *L 0 *D SDFFQXL

*CAP
1 *258:2 0.000108843
2 *258:3 0.000108843
3 *258:4 0.00020507
4 *258:5 0.000246084
5 *258:6 0.000348299
6 *258:7 4.1014e-05
7 *258:8 0.000348299
8 *258:9 0.000152381
9 *258:11 0.000152381

*RES
1 *258:13 *905:Q 1.4
2 *258:11 *258:13 1.4
3 *258:10 *905:SI 1.4
4 *258:9 *258:11 0.870021
5 *258:8 *258:10 1.4
6 *258:7 *258:9 1.4
7 *258:6 *258:8 1.98862
8 *258:5 *258:7 0.248567
9 *258:5 *258:6 1.4
10 *258:4 *258:5 1.24283
11 *258:3 *258:4 1.4
12 *258:2 *258:3 0.621444
13 *258:1 *258:2 1.4
14 *1182:B0 *258:1 1.4
*END

*D_NET *259 0.00206814

*CONN
*I *904:SI I *C 43.645 7.975 *L 0.00169 *D SDFFQXL
*I *1136:B0 I *C 39.585 12.905 *L 0.00265 *D AOI22X1
*I *904:Q O *C 36.975 7.395 *L 0 *D SDFFQXL

*CAP
1 *259:1 2.11568e-05
2 *259:2 2.11568e-05
3 *259:3 0.000358993
4 *259:4 0.000358993
5 *259:5 2.11568e-05
6 *259:6 0.00033851
7 *259:7 0.000317353
8 *259:8 0.000230781
9 *259:10 0.000230781
10 *259:11 8.46274e-05
11 *259:12 8.46274e-05

*RES
1 *259:12 *904:Q 1.4
2 *259:11 *259:12 0.497152
3 *259:10 *259:11 1.4
4 *259:8 *259:10 1.11854
5 *259:7 *1136:B0 1.4
6 *259:6 *259:8 1.4
7 *259:6 *259:7 1.86432
8 *259:5 *259:6 0.124288
9 *259:4 *259:5 1.4
10 *259:3 *259:4 1.73996
11 *259:2 *259:3 1.4
12 *259:1 *259:2 0.124288
13 *904:SI *259:1 1.4
*END

*D_NET *260 0.00517424

*CONN
*I *1255:SI I *C 101.355 60.175 *L 0.00172 *D SDFFQX1
*I *1261:A1 I *C 101.355 70.325 *L 0.00168 *D AO22XL
*I *1260:Q O *C 102.225 73.805 *L 0 *D SDFFQX1
*I *1099:B0 I *C 89.465 78.735 *L 0.00265 *D AOI22X1

*CAP
1 *260:2 4.58988e-05
2 *260:3 4.58988e-05
3 *260:4 0.000817299
4 *260:5 0.00109752
5 *260:6 0.000280217
6 *260:7 4.58988e-05
7 *260:8 0.000963875
8 *260:9 4.58988e-05
9 *260:10 0.000114747
10 *260:11 0.000849128
11 *260:14 0.000391476
12 *260:17 0.000391476
13 *260:18 4.24564e-05
14 *260:19 4.24564e-05

*RES
1 *260:20 *1099:B0 1.4
2 *260:19 *260:20 1.4
3 *260:18 *260:19 0.248578
4 *260:17 *260:18 1.4
5 *260:14 *260:17 2.11283
6 *260:13 *1260:Q 1.4
7 *260:12 *1261:A1 1.4
8 *260:11 *260:14 1.4
9 *260:10 *260:13 1.4
10 *260:9 *260:12 1.4
11 *260:8 *260:11 4.59868
12 *260:8 *260:10 0.621444
13 *260:7 *260:9 0.248578
14 *260:6 *260:8 1.4
15 *260:5 *260:7 1.4
16 *260:5 *260:6 1.49141
17 *260:4 *260:5 4.34996
18 *260:3 *260:4 1.4
19 *260:2 *260:3 0.248578
20 *260:1 *260:2 1.4
21 *1255:SI *260:1 1.4
*END

*D_NET *261 0.00608392

*CONN
*I *1257:SI I *C 101.355 36.685 *L 0.00172 *D SDFFQX1
*I *1296:A1 I *C 100.195 54.665 *L 0.00168 *D AO22XL
*I *1259:Q O *C 91.785 54.375 *L 0 *D SDFFQX1
*I *1346:C0 I *C 85.985 49.155 *L 0.00166 *D AOI222XL

*CAP
1 *261:2 9.52707e-05
2 *261:3 9.52707e-05
3 *261:4 0.00138986
4 *261:5 0.00138986
5 *261:7 0.000665533
6 *261:8 0.000665533
7 *261:9 2.33514e-05
8 *261:10 4.67028e-05
9 *261:12 2.33514e-05
10 *261:13 0.000458988
11 *261:14 0.000458988
12 *261:15 0.000385605
13 *261:16 0.000385605

*RES
1 *261:16 *1346:C0 1.4
2 *261:15 *261:16 2.11287
3 *261:14 *261:15 1.4
4 *261:13 *261:14 2.48577
5 *261:12 *261:13 1.4
6 *261:10 *261:12 0.124285
7 *261:10 *1259:Q 1.4
8 *261:9 *261:10 0.124285
9 *261:8 *261:9 1.4
10 *261:7 *261:8 3.60437
11 *261:5 *261:7 1.4
12 *261:5 *1296:A1 1.4
13 *261:4 *261:5 7.70582
14 *261:3 *261:4 1.4
15 *261:2 *261:3 0.497131
16 *261:1 *261:2 1.4
17 *1257:SI *261:1 1.4
*END

*D_NET *262 0.00493218

*CONN
*I *1256:SI I *C 38.715 60.175 *L 0.00172 *D SDFFQX1
*I *1258:Q O *C 38.715 73.805 *L 0 *D SDFFQX1
*I *1316:B I *C 36.975 70.615 *L 0.00167 *D NAND2XL
*I *1086:B0 I *C 35.815 80.765 *L 0.00265 *D AOI22X1

*CAP
1 *262:2 2.82705e-05
2 *262:3 2.82705e-05
3 *262:4 0.00085637
4 *262:5 0.00085637
5 *262:6 2.82705e-05
6 *262:7 0.000197893
7 *262:8 0.000327435
8 *262:9 0.000282705
9 *262:10 0.000327435
10 *262:11 5.03747e-05
11 *262:12 0.000113082
12 *262:14 5.03747e-05
13 *262:15 0.000892665
14 *262:17 0.000892665

*RES
1 *262:17 *1086:B0 1.4
2 *262:15 *262:17 4.59863
3 *262:14 *1316:B 1.4
4 *262:12 *262:15 1.4
5 *262:11 *262:14 0.248578
6 *262:10 *1258:Q 1.4
7 *262:9 *262:12 0.497131
8 *262:9 *262:11 1.4
9 *262:8 *262:10 1.61575
10 *262:7 *262:9 0.745697
11 *262:7 *262:8 1.4
12 *262:6 *262:7 0.124283
13 *262:5 *262:6 1.4
14 *262:4 *262:5 4.22582
15 *262:3 *262:4 1.4
16 *262:2 *262:3 0.124283
17 *262:1 *262:2 1.4
18 *1256:SI *262:1 1.4
*END

*D_NET *263 0.00347041

*CONN
*I *1249:SI I *C 87.725 34.075 *L 0.00172 *D SDFFQX1
*I *1257:Q O *C 94.685 37.265 *L 0 *D SDFFQX1
*I *1100:A0 I *C 93.235 41.905 *L 0.00264 *D AOI22X1
*I *1295:A1 I *C 99.325 39.005 *L 0.00168 *D AO22XL

*CAP
1 *263:1 0.000133612
2 *263:2 0.000133612
3 *263:3 0.000500171
4 *263:4 0.000500171
5 *263:5 0.000222686
6 *263:6 0.000222686
7 *263:7 0.000119088
8 *263:8 0.000452536
9 *263:9 4.76353e-05
10 *263:10 0.000381083
11 *263:11 0.000111343
12 *263:12 0.000244955
13 *263:13 2.22686e-05
14 *263:14 0.000111343
15 *263:15 0.000244955
16 *263:16 2.22686e-05

*RES
1 *263:16 *1295:A1 1.4
2 *263:15 *1100:A0 1.4
3 *263:14 *1257:Q 1.4
4 *263:13 *263:16 0.124288
5 *263:12 *263:15 1.36717
6 *263:11 *263:14 0.621439
7 *263:10 *263:13 1.4
8 *263:9 *263:12 1.4
9 *263:8 *263:11 1.4
10 *263:8 *263:10 1.98852
11 *263:7 *263:9 0.248565
12 *263:7 *263:8 0.372848
13 *263:6 *263:7 1.4
14 *263:5 *263:6 1.24288
15 *263:4 *263:5 1.4
16 *263:3 *263:4 2.60994
17 *263:2 *263:3 1.4
18 *263:1 *263:2 0.745727
19 *1249:SI *263:1 1.4
*END

*D_NET *264 0.00223906

*CONN
*I *1251:SI I *C 41.615 57.565 *L 0.00172 *D SDFFQX1
*I *1315:B I *C 41.615 62.785 *L 0.00167 *D NAND2XL
*I *1146:B0 I *C 46.835 59.885 *L 0.00265 *D AOI22X1
*I *1256:Q O *C 45.385 59.595 *L 0 *D SDFFQX1

*CAP
1 *264:2 2.82705e-05
2 *264:3 2.82705e-05
3 *264:4 0.000277061
4 *264:5 0.000277061
5 *264:6 2.82705e-05
6 *264:7 0.000113082
7 *264:8 8.48115e-05
8 *264:9 0.000176311
9 *264:10 7.5562e-05
10 *264:11 0.000176311
11 *264:12 7.5562e-05
12 *264:13 5.6541e-05
13 *264:14 0.000226164
14 *264:15 5.6541e-05
15 *264:16 0.000367516
16 *264:18 0.000141352
17 *264:19 2.51873e-05
18 *264:22 2.51873e-05

*RES
1 *264:22 *1256:Q 1.4
2 *264:21 *1146:B0 1.4
3 *264:19 *264:22 0.124289
4 *264:18 *264:21 1.4
5 *264:17 *1315:B 1.4
6 *264:16 *264:19 1.4
7 *264:16 *264:18 0.621414
8 *264:15 *264:17 1.4
9 *264:14 *264:16 0.994263
10 *264:13 *264:15 0.248566
11 *264:12 *264:14 1.4
12 *264:11 *264:13 1.4
13 *264:10 *264:12 0.372866
14 *264:9 *264:11 0.870021
15 *264:8 *264:10 1.4
16 *264:7 *264:9 1.4
17 *264:7 *264:8 0.372849
18 *264:6 *264:7 0.124283
19 *264:5 *264:6 1.4
20 *264:4 *264:5 1.36718
21 *264:3 *264:4 1.4
22 *264:2 *264:3 0.124283
23 *264:1 *264:2 1.4
24 *1251:SI *264:1 1.4
*END

*D_NET *265 0.0033208

*CONN
*I *1259:SI I *C 98.455 54.955 *L 0.00172 *D SDFFQX1
*I *1293:A1 I *C 99.905 57.855 *L 0.00168 *D AO22XL
*I *1255:Q O *C 94.685 59.595 *L 0 *D SDFFQX1
*I *1079:B0 I *C 85.405 57.855 *L 0.00265 *D AOI22X1

*CAP
1 *265:2 4.58988e-05
2 *265:3 4.58988e-05
3 *265:4 0.000233514
4 *265:5 0.000280217
5 *265:6 4.67028e-05
6 *265:7 6.88482e-05
7 *265:8 0.000344241
8 *265:9 6.88482e-05
9 *265:10 0.000344241
10 *265:12 0.00016346
11 *265:14 9.34056e-05
12 *265:15 7.00542e-05
13 *265:17 0.000734381
14 *265:18 0.000734381
15 *265:19 2.33514e-05
16 *265:20 2.33514e-05

*RES
1 *265:20 *1079:B0 1.4
2 *265:19 *265:20 0.124285
3 *265:18 *265:19 1.4
4 *265:17 *265:18 3.97724
5 *265:15 *265:17 1.4
6 *265:14 *1255:Q 1.4
7 *265:12 *265:15 0.372854
8 *265:12 *265:14 0.497138
9 *265:11 *1293:A1 1.4
10 *265:10 *265:12 1.4
11 *265:9 *265:11 1.4
12 *265:8 *265:10 1.86433
13 *265:7 *265:9 0.372866
14 *265:6 *265:8 1.4
15 *265:5 *265:7 1.4
16 *265:5 *265:6 0.248569
17 *265:4 *265:5 1.24285
18 *265:3 *265:4 1.4
19 *265:2 *265:3 0.248578
20 *265:1 *265:2 1.4
21 *1259:SI *265:1 1.4
*END

*D_NET *266 0.00264684

*CONN
*I *1258:SI I *C 32.045 73.225 *L 0.00172 *D SDFFQX1
*I *1350:B0 I *C 31.755 81.345 *L 0.00171 *D AO22XL
*I *1314:B I *C 30.015 73.225 *L 0.00167 *D NAND2XL
*I *1254:Q O *C 28.565 75.255 *L 0 *D SDFFQX1

*CAP
1 *266:2 2.82705e-05
2 *266:3 2.82705e-05
3 *266:4 0.000707114
4 *266:5 0.000656739
5 *266:6 5.03747e-05
6 *266:8 0.000169623
7 *266:9 0.000310975
8 *266:10 5.03747e-05
9 *266:11 0.000141352
10 *266:12 5.03747e-05
11 *266:13 0.000226686
12 *266:15 0.000226686

*RES
1 *266:15 *1254:Q 1.4
2 *266:13 *266:15 1.1186
3 *266:12 *1314:B 1.4
4 *266:11 *266:13 1.4
5 *266:10 *266:12 0.248578
6 *266:9 *266:11 0.621414
7 *266:9 *266:10 1.4
8 *266:8 *266:9 0.745697
9 *266:6 *266:8 1.4
10 *266:5 *1350:B0 1.4
11 *266:4 *266:6 0.248578
12 *266:4 *266:5 3.48002
13 *266:3 *266:4 1.4
14 *266:2 *266:3 0.124283
15 *266:1 *266:2 1.4
16 *1258:SI *266:1 1.4
*END

*D_NET *267 0.00422939

*CONN
*I *1292:A1 I *C 36.105 63.075 *L 0.00168 *D AO22XL
*I *1254:SI I *C 35.235 75.835 *L 0.00172 *D SDFFQX1
*I *1253:Q O *C 37.555 59.595 *L 0 *D SDFFQX1
*I *1215:A I *C 37.845 57.855 *L 0.00273 *D INVX1

*CAP
1 *267:1 0.000100749
2 *267:2 0.000100749
3 *267:3 2.82705e-05
4 *267:4 8.48115e-05
5 *267:5 0.000201499
6 *267:6 5.6541e-05
7 *267:7 0.000352623
8 *267:8 0.00120899
9 *267:9 0.000169623
10 *267:10 0.000151124
11 *267:11 0.00120899
12 *267:12 0.000169623
13 *267:13 0.000197893
14 *267:16 0.000197893

*RES
1 *267:18 *1215:A 1.4
2 *267:16 *267:18 1.4
3 *267:15 *1253:Q 1.4
4 *267:13 *267:16 0.86998
5 *267:12 *267:15 1.4
6 *267:11 *1254:SI 1.4
7 *267:10 *267:13 1.4
8 *267:9 *267:12 0.745697
9 *267:8 *267:11 5.96586
10 *267:7 *267:10 0.745732
11 *267:7 *267:9 1.4
12 *267:6 *267:8 1.4
13 *267:5 *267:7 0.99431
14 *267:4 *267:6 0.248566
15 *267:4 *267:5 1.4
16 *267:3 *267:4 0.124283
17 *267:2 *267:3 1.4
18 *267:1 *267:2 0.497155
19 *1292:A1 *267:1 1.4
*END

*D_NET *268 0.00355346

*CONN
*I *1253:SI I *C 30.885 60.175 *L 0.00172 *D SDFFQX1
*I *1252:Q O *C 27.115 52.925 *L 0 *D SDFFQX1
*I *1111:B0 I *C 26.245 52.635 *L 0.00265 *D AOI22X1
*I *1304:B I *C 30.015 49.735 *L 0.00167 *D NAND2XL

*CAP
1 *268:1 5.03747e-05
2 *268:2 5.03747e-05
3 *268:3 8.48115e-05
4 *268:4 8.48115e-05
5 *268:5 0.000805995
6 *268:6 0.000805995
7 *268:7 8.58254e-05
8 *268:8 0.000286085
9 *268:9 0.000151125
10 *268:10 0.000286085
11 *268:11 0.000151125
12 *268:12 0.000125937
13 *268:13 8.58254e-05
14 *268:14 8.58254e-05
15 *268:15 0.000125937
16 *268:16 0.00010075
17 *268:17 8.58254e-05
18 *268:19 0.00010075

*RES
1 *268:20 *1304:B 1.4
2 *268:19 *1111:B0 1.4
3 *268:17 *268:20 1.4
4 *268:16 *268:19 0.497152
5 *268:15 *1252:Q 1.4
6 *268:14 *268:17 0.372866
7 *268:13 *268:16 1.4
8 *268:12 *268:15 0.621441
9 *268:11 *268:14 1.4
10 *268:10 *268:13 0.372866
11 *268:10 *268:12 1.4
12 *268:9 *268:11 0.745726
13 *268:8 *268:10 0.870021
14 *268:8 *268:9 1.4
15 *268:7 *268:8 0.372866
16 *268:6 *268:7 1.4
17 *268:5 *268:6 3.97724
18 *268:4 *268:5 1.4
19 *268:3 *268:4 0.372849
20 *268:2 *268:3 1.4
21 *268:1 *268:2 0.248578
22 *1253:SI *268:1 1.4
*END

*D_NET *269 0.0121289

*CONN
*I *1260:SI I *C 95.555 73.225 *L 0.00172 *D SDFFQX1
*I *1089:B0 I *C 57.855 57.855 *L 0.00265 *D AOI22X1
*I *1251:Q O *C 48.285 58.145 *L 0 *D SDFFQX1
*I *1290:A1 I *C 45.095 54.665 *L 0.00168 *D AO22XL

*CAP
1 *269:1 0.00121427
2 *269:2 0.00121427
3 *269:3 0.00329698
4 *269:4 0.00421288
5 *269:5 2.40564e-05
6 *269:6 0.000915895
7 *269:7 2.40564e-05
8 *269:8 0.000125937
9 *269:11 0.000125937
10 *269:12 0.000310975
11 *269:13 0.000310975
12 *269:14 0.000176311
13 *269:15 0.000176311

*RES
1 *269:15 *1290:A1 1.4
2 *269:14 *269:15 0.870021
3 *269:13 *269:14 1.4
4 *269:12 *269:13 1.36711
5 *269:11 *269:12 1.4
6 *269:8 *269:11 0.621444
7 *269:8 *1251:Q 1.4
8 *269:7 *1089:B0 1.4
9 *269:6 *269:8 1.4
10 *269:5 *269:7 0.124289
11 *269:4 *269:6 4.10145
12 *269:4 *269:5 1.4
13 *269:3 *269:4 16.1575
14 *269:2 *269:3 1.4
15 *269:1 *269:2 6.4628
16 *1260:SI *269:1 1.4
*END

*D_NET *270 0.00482111

*CONN
*I *1247:SI I *C 37.555 39.295 *L 0.00172 *D SDFFQX1
*I *1250:Q O *C 42.775 33.495 *L 0 *D SDFFQX1
*I *1317:A I *C 43.065 28.855 *L 0.00157 *D NAND2XL
*I *1059:A0 I *C 49.155 28.565 *L 0.00264 *D AOI221X1

*CAP
1 *270:1 5.03749e-05
2 *270:2 5.03749e-05
3 *270:3 0.000543561
4 *270:4 0.000543561
5 *270:5 0.000402999
6 *270:6 0.000402999
7 *270:7 2.86085e-05
8 *270:8 2.86085e-05
9 *270:9 0.000151125
10 *270:10 0.000629686
11 *270:12 0.000478561
12 *270:13 2.86085e-05
13 *270:14 0.000629387
14 *270:15 0.000600778
15 *270:16 7.55623e-05
16 *270:17 5.03749e-05
17 *270:18 7.55623e-05
18 *270:19 5.03749e-05

*RES
1 *270:19 *1059:A0 1.4
2 *270:18 *1317:A 1.4
3 *270:17 *270:19 0.248575
4 *270:16 *270:18 0.372863
5 *270:15 *270:17 1.4
6 *270:14 *270:16 1.4
7 *270:14 *270:15 2.61006
8 *270:13 *270:14 0.124289
9 *270:12 *270:13 1.4
10 *270:10 *270:12 2.36147
11 *270:10 *1250:Q 1.4
12 *270:9 *270:10 0.745726
13 *270:8 *270:9 1.4
14 *270:7 *270:8 0.124289
15 *270:6 *270:7 1.4
16 *270:5 *270:6 1.9886
17 *270:4 *270:5 1.4
18 *270:3 *270:4 2.36149
19 *270:2 *270:3 1.4
20 *270:1 *270:2 0.248575
21 *1247:SI *270:1 1.4
*END

*D_NET *271 0.00446751

*CONN
*I *1289:A1 I *C 82.795 39.005 *L 0.00168 *D AO22XL
*I *1249:Q O *C 81.055 33.495 *L 0 *D SDFFQX1
*I *925:SI I *C 83.085 28.855 *L 0.00172 *D SDFFQX1
*I *1186:B0 I *C 71.485 28.565 *L 0.00265 *D AOI22X1

*CAP
1 *271:1 8.90746e-05
2 *271:2 8.90746e-05
3 *271:3 0.000119088
4 *271:4 0.000119088
5 *271:5 0.000378567
6 *271:6 0.000378567
7 *271:7 2.38177e-05
8 *271:8 2.38177e-05
9 *271:9 0.000133612
10 *271:10 0.000467642
11 *271:12 0.000400836
12 *271:13 0.000166724
13 *271:14 6.68059e-05
14 *271:15 0.000166724
15 *271:16 0.000875758
16 *271:17 2.22686e-05
17 *271:18 0.000875758
18 *271:19 2.22686e-05
19 *271:20 2.40074e-05
20 *271:22 2.40074e-05

*RES
1 *271:22 *1186:B0 1.4
2 *271:20 *271:22 0.124283
3 *271:19 *925:SI 1.4
4 *271:18 *271:20 1.4
5 *271:17 *271:19 0.124288
6 *271:16 *271:18 4.10146
7 *271:15 *271:17 1.4
8 *271:14 *271:16 1.4
9 *271:13 *271:15 0.869979
10 *271:12 *271:14 0.372863
11 *271:12 *271:13 1.4
12 *271:10 *271:12 1.86432
13 *271:10 *1249:Q 1.4
14 *271:9 *271:10 0.745727
15 *271:8 *271:9 1.4
16 *271:7 *271:8 0.124283
17 *271:6 *271:7 1.4
18 *271:5 *271:6 2.11289
19 *271:4 *271:5 1.4
20 *271:3 *271:4 0.621413
21 *271:2 *271:3 1.4
22 *271:1 *271:2 0.497151
23 *1289:A1 *271:1 1.4
*END

*D_NET *272 0.00647854

*CONN
*I *1352:B0 I *C 37.555 23.925 *L 0.00171 *D AO22XL
*I *1311:B I *C 35.525 36.685 *L 0.00167 *D NAND2XL
*I *1252:SI I *C 33.785 52.345 *L 0.00172 *D SDFFQX1
*I *1247:Q O *C 30.885 38.715 *L 0 *D SDFFQX1

*CAP
1 *272:2 0.000128212
2 *272:3 0.000128212
3 *272:4 0.00107802
4 *272:5 0.0013047
5 *272:6 0.000226687
6 *272:7 5.7217e-05
7 *272:8 0.000228868
8 *272:9 5.7217e-05
9 *272:10 0.000228868
10 *272:12 0.001209
11 *272:14 0.00113343
12 *272:15 7.55623e-05
13 *272:17 0.000286085
14 *272:18 0.000286085
15 *272:19 2.51874e-05
16 *272:20 2.51874e-05

*RES
1 *272:20 *1247:Q 1.4
2 *272:19 *272:20 0.124288
3 *272:18 *272:19 1.4
4 *272:17 *272:18 1.24289
5 *272:15 *272:17 1.4
6 *272:14 *1252:SI 1.4
7 *272:12 *272:15 0.372863
8 *272:12 *272:14 5.59295
9 *272:11 *1311:B 1.4
10 *272:10 *272:12 1.4
11 *272:9 *272:11 1.4
12 *272:8 *272:10 0.99431
13 *272:7 *272:9 0.248577
14 *272:6 *272:8 1.4
15 *272:5 *272:7 1.4
16 *272:5 *272:6 1.11859
17 *272:4 *272:5 5.46866
18 *272:3 *272:4 1.4
19 *272:2 *272:3 0.621413
20 *272:1 *272:2 1.4
21 *1352:B0 *272:1 1.4
*END

*D_NET *273 0.0045131

*CONN
*I *1231:SI I *C 77.865 60.175 *L 0.00172 *D SDFFQX1
*I *1299:A1 I *C 75.835 73.515 *L 0.00163 *D AO22X1
*I *1232:Q O *C 82.505 75.255 *L 0 *D SDFFQX1
*I *1093:B0 I *C 77.575 78.735 *L 0.00265 *D AOI22X1

*CAP
1 *273:2 2.73971e-05
2 *273:3 2.73971e-05
3 *273:4 0.00113065
4 *273:5 0.00113065
5 *273:6 0.000290249
6 *273:7 7.10721e-05
7 *273:8 0.000219177
8 *273:9 0.000116757
9 *273:10 2.40564e-05
10 *273:11 0.000116757
11 *273:12 2.40564e-05
12 *273:13 0.000321292
13 *273:15 0.000275393
14 *273:16 4.58988e-05
15 *273:18 0.000274719
16 *273:20 0.000274719
17 *273:21 7.14302e-05
18 *273:22 7.14302e-05

*RES
1 *273:23 *1093:B0 1.4
2 *273:22 *273:23 1.4
3 *273:21 *273:22 0.372866
4 *273:20 *273:21 1.4
5 *273:18 *273:20 1.49141
6 *273:17 *1232:Q 1.4
7 *273:16 *273:18 1.4
8 *273:15 *273:17 1.4
9 *273:13 *273:16 0.248578
10 *273:13 *273:15 1.49146
11 *273:12 *1299:A1 1.4
12 *273:11 *273:13 1.4
13 *273:10 *273:12 0.124289
14 *273:9 *273:11 0.621423
15 *273:8 *273:10 1.4
16 *273:7 *273:9 1.4
17 *273:6 *273:8 0.99431
18 *273:6 *273:7 0.372866
19 *273:5 *273:6 1.4
20 *273:4 *273:5 5.84157
21 *273:3 *273:4 1.4
22 *273:2 *273:3 0.124289
23 *273:1 *273:2 1.4
24 *1231:SI *273:1 1.4
*END

*D_NET *274 0.0052574

*CONN
*I *1229:SI I *C 75.255 39.295 *L 0.00172 *D SDFFQX1
*I *1041:A0 I *C 76.705 57.855 *L 0.00156 *D AOI222XL
*I *1231:Q O *C 71.195 59.595 *L 0 *D SDFFQX1
*I *1297:A1 I *C 76.125 63.075 *L 0.00168 *D AO22XL

*CAP
1 *274:2 8.29136e-05
2 *274:3 8.29136e-05
3 *274:4 0.00153743
4 *274:5 0.00168177
5 *274:6 0.000144338
6 *274:7 5.47942e-05
7 *274:8 0.000493148
8 *274:9 5.47942e-05
9 *274:10 2.73971e-05
10 *274:11 0.000465751
11 *274:13 0.000288677
12 *274:16 0.000288677
13 *274:18 2.73971e-05
14 *274:19 2.73971e-05

*RES
1 *274:20 *1297:A1 1.4
2 *274:19 *274:20 1.4
3 *274:18 *274:19 0.124289
4 *274:16 *274:18 1.4
5 *274:14 *1231:Q 1.4
6 *274:13 *274:16 1.49146
7 *274:12 *1041:A0 1.4
8 *274:11 *274:14 1.4
9 *274:10 *274:13 1.4
10 *274:9 *274:12 1.4
11 *274:8 *274:11 2.11291
12 *274:8 *274:10 0.124289
13 *274:7 *274:9 0.248577
14 *274:6 *274:8 1.4
15 *274:5 *274:7 1.4
16 *274:5 *274:6 0.745732
17 *274:4 *274:5 7.95421
18 *274:3 *274:4 1.4
19 *274:2 *274:3 0.372865
20 *274:1 *274:2 1.4
21 *1229:SI *274:1 1.4
*END

*D_NET *275 0.0021431

*CONN
*I *1228:SI I *C 48.285 75.835 *L 0.00172 *D SDFFQX1
*I *1307:B I *C 51.765 75.835 *L 0.00167 *D NAND2XL
*I *1080:A1 I *C 52.345 80.475 *L 0.00171 *D AOI22XL
*I *1230:Q O *C 55.245 79.025 *L 0 *D SDFFQX1

*CAP
1 *275:1 2.51873e-05
2 *275:2 2.51873e-05
3 *275:3 0.000339246
4 *275:4 0.000339246
5 *275:5 2.51873e-05
6 *275:6 0.000311267
7 *275:7 0.000286079
8 *275:9 5.02346e-05
9 *275:10 0.000293499
10 *275:11 0.000243264
11 *275:12 8.18817e-05
12 *275:13 2.04704e-05
13 *275:14 8.18817e-05
14 *275:15 2.04704e-05

*RES
1 *275:15 *1230:Q 1.4
2 *275:14 *1080:A1 1.4
3 *275:13 *275:15 0.124288
4 *275:12 *275:14 0.497151
5 *275:11 *275:13 1.4
6 *275:10 *275:12 1.4
7 *275:10 *275:11 1.24289
8 *275:9 *275:10 0.248569
9 *275:7 *275:9 1.4
10 *275:6 *1307:B 1.4
11 *275:6 *275:7 1.49144
12 *275:5 *275:6 0.124289
13 *275:4 *275:5 1.4
14 *275:3 *275:4 1.49139
15 *275:2 *275:3 1.4
16 *275:1 *275:2 0.124289
17 *1228:SI *275:1 1.4
*END

*D_NET *276 0.00346439

*CONN
*I *1048:C1 I *C 75.835 44.225 *L 0.00176 *D AOI222XL
*I *1294:A1 I *C 75.255 42.195 *L 0.00168 *D AO22XL
*I *1229:Q O *C 81.925 38.715 *L 0 *D SDFFQX1
*I *1221:SI I *C 73.225 34.075 *L 0.00172 *D SDFFQX1

*CAP
1 *276:2 5.52757e-05
2 *276:3 5.52757e-05
3 *276:4 0.000168052
4 *276:5 0.000456141
5 *276:7 0.000288089
6 *276:8 5.52757e-05
7 *276:9 0.000587918
8 *276:10 0.000532643
9 *276:11 0.000312097
10 *276:13 0.000312097
11 *276:15 0.000248741
12 *276:16 0.000248741
13 *276:17 7.20223e-05
14 *276:18 7.20223e-05

*RES
1 *276:18 *1221:SI 1.4
2 *276:17 *276:18 0.372848
3 *276:16 *276:17 1.4
4 *276:15 *276:16 1.11859
5 *276:13 *276:15 1.4
6 *276:12 *1229:Q 1.4
7 *276:11 *276:13 1.61567
8 *276:10 *276:12 1.4
9 *276:9 *276:11 1.4
10 *276:9 *276:10 2.60998
11 *276:8 *276:9 0.248576
12 *276:7 *276:8 1.4
13 *276:5 *276:7 1.49139
14 *276:5 *1294:A1 1.4
15 *276:4 *276:5 0.869979
16 *276:3 *276:4 1.4
17 *276:2 *276:3 0.248576
18 *276:1 *276:2 1.4
19 *1048:C1 *276:1 1.4
*END

*D_NET *277 0.00388807

*CONN
*I *1114:B0 I *C 45.965 78.735 *L 0.00265 *D AOI22X1
*I *1312:B I *C 43.645 78.445 *L 0.00167 *D NAND2XL
*I *1228:Q O *C 41.615 75.255 *L 0 *D SDFFQX1
*I *1239:SI I *C 37.555 68.005 *L 0.00172 *D SDFFQX1

*CAP
1 *277:1 6.86326e-05
2 *277:2 6.86326e-05
3 *277:3 0.000197893
4 *277:4 0.000197893
5 *277:5 0.000100749
6 *277:6 0.000100749
7 *277:7 2.82705e-05
8 *277:8 0.000226164
9 *277:9 0.000148814
10 *277:10 0.000197893
11 *277:11 0.000148814
12 *277:12 0.000125937
13 *277:14 0.000780808
14 *277:16 0.000654871
15 *277:17 0.000395787
16 *277:18 0.000395787
17 *277:19 2.51873e-05
18 *277:20 2.51873e-05

*RES
1 *277:20 *1239:SI 1.4
2 *277:19 *277:20 0.124289
3 *277:18 *277:19 1.4
4 *277:17 *277:18 1.73996
5 *277:16 *277:17 1.4
6 *277:14 *277:16 3.23151
7 *277:14 *1228:Q 1.4
8 *277:12 *277:14 0.621444
9 *277:11 *1312:B 1.4
10 *277:10 *277:12 1.4
11 *277:9 *277:11 0.745729
12 *277:8 *277:10 0.86998
13 *277:8 *277:9 1.4
14 *277:7 *277:8 0.124283
15 *277:6 *277:7 1.4
16 *277:5 *277:6 0.497155
17 *277:4 *277:5 1.4
18 *277:3 *277:4 0.86998
19 *277:2 *277:3 1.4
20 *277:1 *277:2 0.372857
21 *1114:B0 *277:1 1.4
*END

*D_NET *278 0.00204033

*CONN
*I *1232:SI I *C 75.835 75.835 *L 0.00172 *D SDFFQX1
*I *1291:A1 I *C 74.095 73.515 *L 0.00168 *D AO22XL
*I *1067:A0 I *C 78.445 70.615 *L 0.00264 *D AOI22X1
*I *1227:Q O *C 76.125 70.035 *L 0 *D SDFFQX1

*CAP
1 *278:2 2.73971e-05
2 *278:3 2.73971e-05
3 *278:4 0.000144338
4 *278:5 0.000144338
5 *278:6 0.000246574
6 *278:7 5.47942e-05
7 *278:8 0.00019178
8 *278:9 0.000288677
9 *278:10 4.81128e-05
10 *278:11 0.000288677
11 *278:12 4.81128e-05
12 *278:13 0.000216953
13 *278:15 0.000162159
14 *278:16 5.47942e-05
15 *278:18 4.81128e-05
16 *278:20 4.81128e-05

*RES
1 *278:20 *1227:Q 1.4
2 *278:18 *278:20 0.248578
3 *278:17 *1067:A0 1.4
4 *278:16 *278:18 1.4
5 *278:15 *278:17 1.4
6 *278:13 *278:16 0.248577
7 *278:13 *278:15 0.745732
8 *278:12 *1291:A1 1.4
9 *278:11 *278:13 1.4
10 *278:10 *278:12 0.248578
11 *278:9 *278:11 1.49146
12 *278:8 *278:10 1.4
13 *278:7 *278:9 1.4
14 *278:6 *278:8 0.870021
15 *278:6 *278:7 0.248577
16 *278:5 *278:6 1.4
17 *278:4 *278:5 0.745732
18 *278:3 *278:4 1.4
19 *278:2 *278:3 0.124289
20 *278:1 *278:2 1.4
21 *1232:SI *278:1 1.4
*END

*D_NET *279 0.00234075

*CONN
*I *1244:SI I *C 35.525 78.445 *L 0.00172 *D SDFFQX1
*I *1313:B I *C 33.495 78.445 *L 0.00167 *D NAND2XL
*I *1226:Q O *C 30.885 79.025 *L 0 *D SDFFQX1
*I *1047:B0 I *C 28.1625 81.1275 *L 0.00163 *D AOI222XL

*CAP
1 *279:1 7.32522e-05
2 *279:2 7.32522e-05
3 *279:3 0.000197893
4 *279:4 0.000452328
5 *279:5 7.32522e-05
6 *279:6 0.000254434
7 *279:7 7.32522e-05
8 *279:8 0.000114388
9 *279:10 0.000299497
10 *279:11 0.000185109
11 *279:13 0.000228428
12 *279:14 0.000228428
13 *279:15 3.58162e-05
14 *279:16 4.36177e-05
15 *279:17 7.80154e-06

*RES
1 *279:17 *1047:B0 1.4
2 *279:16 *279:17 0.0471417
3 *279:15 *279:16 0.216423
4 *279:14 *279:15 1.4
5 *279:13 *279:14 1.11855
6 *279:11 *279:13 1.4
7 *279:10 *1226:Q 1.4
8 *279:10 *279:11 1.11854
9 *279:8 *279:10 0.621429
10 *279:7 *1313:B 1.4
11 *279:6 *279:8 1.4
12 *279:5 *279:7 0.372863
13 *279:4 *279:6 1.11855
14 *279:4 *279:5 1.4
15 *279:3 *279:4 0.86998
16 *279:2 *279:3 1.4
17 *279:1 *279:2 0.372863
18 *1244:SI *279:1 1.4
*END

*D_NET *280 0.00324702

*CONN
*I *1240:SI I *C 25.375 73.225 *L 0.00172 *D SDFFQX1
*I *1288:A1 I *C 27.115 63.075 *L 0.00168 *D AO22XL
*I *1073:A0 I *C 24.505 63.075 *L 0.00265 *D AOI21X1
*I *1225:Q O *C 22.185 64.815 *L 0 *D SDFFQX1

*CAP
1 *280:2 0.000154178
2 *280:3 0.000154178
3 *280:4 0.000881557
4 *280:5 0.000906744
5 *280:7 2.51873e-05
6 *280:8 0.000220456
7 *280:9 0.000220456
8 *280:10 2.36274e-05
9 *280:11 0.000141764
10 *280:12 0.000118137
11 *280:14 0.000176741
12 *280:15 0.000176741
13 *280:16 2.36274e-05
14 *280:17 2.36274e-05

*RES
1 *280:17 *1225:Q 1.4
2 *280:16 *280:17 0.124283
3 *280:15 *280:16 1.4
4 *280:14 *280:15 0.99431
5 *280:12 *280:14 1.4
6 *280:11 *1073:A0 1.4
7 *280:11 *280:12 0.621413
8 *280:10 *280:11 0.124283
9 *280:9 *280:10 1.4
10 *280:8 *280:9 1.11858
11 *280:7 *280:8 1.4
12 *280:5 *280:7 0.124289
13 *280:5 *1288:A1 1.4
14 *280:4 *280:5 4.35011
15 *280:3 *280:4 1.4
16 *280:2 *280:3 0.745712
17 *280:1 *280:2 1.4
18 *1240:SI *280:1 1.4
*END

*D_NET *281 0.00470663

*CONN
*I *1113:B0 I *C 26.825 49.445 *L 0.00265 *D AOI22X1
*I *1238:SI I *C 23.055 60.175 *L 0.00172 *D SDFFQX1
*I *1224:Q O *C 22.765 43.935 *L 0 *D SDFFQX1
*I *1319:A I *C 27.695 41.905 *L 0.00157 *D NAND2XL

*CAP
1 *281:1 2.51874e-05
2 *281:2 2.51874e-05
3 *281:3 0.000272965
4 *281:4 0.000320363
5 *281:5 0.000281272
6 *281:6 4.73985e-05
7 *281:7 0.000281272
8 *281:8 0.000895867
9 *281:9 4.73985e-05
10 *281:10 0.000895867
11 *281:11 4.73985e-05
12 *281:13 0.000140636
13 *281:14 0.000328151
14 *281:15 0.000118496
15 *281:16 0.000187515
16 *281:17 0.000118496
17 *281:18 0.000311392
18 *281:20 0.000311392
19 *281:22 2.51874e-05
20 *281:23 2.51874e-05

*RES
1 *281:23 *1319:A 1.4
2 *281:22 *281:23 0.124288
3 *281:20 *281:22 1.4
4 *281:19 *1224:Q 1.4
5 *281:18 *281:20 1.49146
6 *281:17 *281:19 1.4
7 *281:16 *281:18 1.4
8 *281:15 *281:17 0.621444
9 *281:14 *281:16 0.994261
10 *281:14 *281:15 1.4
11 *281:13 *281:14 0.745696
12 *281:11 *281:13 1.4
13 *281:10 *1238:SI 1.4
14 *281:9 *281:11 0.248577
15 *281:8 *281:10 4.72274
16 *281:7 *281:9 1.4
17 *281:6 *281:8 1.4
18 *281:5 *281:7 1.49139
19 *281:4 *281:6 0.248577
20 *281:4 *281:5 1.4
21 *281:3 *281:4 1.36718
22 *281:2 *281:3 1.4
23 *281:1 *281:2 0.124288
24 *1113:B0 *281:1 1.4
*END

*D_NET *282 0.00441999

*CONN
*I *1349:A0 I *C 45.965 41.905 *L 0.00264 *D AOI22X1
*I *1320:A I *C 40.165 39.295 *L 0.00157 *D NAND2XL
*I *1223:Q O *C 30.885 42.485 *L 0 *D SDFFQX1
*I *1224:SI I *C 29.435 44.515 *L 0.00172 *D SDFFQX1

*CAP
1 *282:1 7.55623e-05
2 *282:2 7.55623e-05
3 *282:3 0.00057217
4 *282:4 0.00148764
5 *282:5 0.000151125
6 *282:6 0.000915471
7 *282:7 0.000151125
8 *282:8 0.000125937
9 *282:10 0.000327437
10 *282:11 0.000201499
11 *282:13 0.000143042
12 *282:14 0.000143042
13 *282:15 2.51874e-05
14 *282:16 2.51874e-05

*RES
1 *282:16 *1224:SI 1.4
2 *282:15 *282:16 0.124288
3 *282:14 *282:15 1.4
4 *282:13 *282:14 0.621444
5 *282:11 *282:13 1.4
6 *282:10 *1223:Q 1.4
7 *282:10 *282:11 0.994302
8 *282:8 *282:10 0.621439
9 *282:7 *1320:A 1.4
10 *282:6 *282:8 1.4
11 *282:5 *282:7 0.745726
12 *282:4 *282:6 3.97724
13 *282:4 *282:5 1.4
14 *282:3 *282:4 2.48577
15 *282:2 *282:3 1.4
16 *282:1 *282:2 0.372863
17 *1349:A0 *282:1 1.4
*END

*D_NET *283 0.00539595

*CONN
*I *1237:SI I *C 45.385 44.515 *L 0.00172 *D SDFFQX1
*I *1300:B I *C 53.215 36.685 *L 0.00167 *D NAND2XL
*I *1138:A0 I *C 53.795 28.855 *L 0.00158 *D AO22XL
*I *1222:Q O *C 58.725 33.495 *L 0 *D SDFFQX1

*CAP
1 *283:1 0.000755623
2 *283:2 0.000755623
3 *283:3 0.000769032
4 *283:4 0.000769032
5 *283:5 0.000120037
6 *283:6 7.20223e-05
7 *283:7 4.80149e-05
8 *283:9 5.52757e-05
9 *283:10 5.52757e-05
10 *283:11 0.000144045
11 *283:12 0.000528164
12 *283:13 0.000469844
13 *283:14 0.000384119
14 *283:15 0.000469844

*RES
1 *283:17 *1222:Q 1.4
2 *283:15 *283:17 1.4
3 *283:14 *1138:A0 1.4
4 *283:13 *283:15 2.1129
5 *283:12 *283:14 1.98852
6 *283:12 *283:13 1.4
7 *283:11 *283:12 0.745696
8 *283:10 *283:11 1.4
9 *283:9 *283:10 0.248576
10 *283:7 *283:9 1.4
11 *283:6 *1300:B 1.4
12 *283:5 *283:7 0.248565
13 *283:5 *283:6 0.372848
14 *283:4 *283:5 1.4
15 *283:3 *283:4 3.35579
16 *283:2 *283:3 1.4
17 *283:1 *283:2 3.72863
18 *1237:SI *283:1 1.4
*END

*D_NET *284 0.00512036

*CONN
*I *1235:SI I *C 76.995 31.465 *L 0.00172 *D SDFFQX1
*I *1283:A1 I *C 73.515 39.005 *L 0.00168 *D AO22XL
*I *1221:Q O *C 66.555 33.495 *L 0 *D SDFFQX1
*I *1181:A0 I *C 68.585 23.635 *L 0.00265 *D OAI22X1

*CAP
1 *284:1 4.80149e-05
2 *284:2 4.80149e-05
3 *284:3 0.000248741
4 *284:4 0.000248741
5 *284:5 0.00019206
6 *284:6 0.00019206
7 *284:7 5.52757e-05
8 *284:8 0.000580395
9 *284:9 0.000384119
10 *284:10 0.00052512
11 *284:11 0.000384119
12 *284:12 9.60298e-05
13 *284:13 2.76379e-05
14 *284:14 0.000864146
15 *284:15 2.76379e-05
16 *284:16 0.000165827
17 *284:17 0.000768116
18 *284:19 0.000165827
19 *284:20 2.52305e-05
20 *284:22 2.40074e-05
21 *284:23 2.52305e-05
22 *284:24 2.40074e-05

*RES
1 *284:25 *1181:A0 1.4
2 *284:24 *1221:Q 1.4
3 *284:23 *284:25 1.4
4 *284:22 *284:24 0.124283
5 *284:20 *284:23 0.124283
6 *284:19 *284:22 1.4
7 *284:18 *1283:A1 1.4
8 *284:17 *284:20 1.4
9 *284:16 *284:19 0.745729
10 *284:15 *284:18 1.4
11 *284:14 *284:17 4.10138
12 *284:14 *284:16 1.4
13 *284:13 *284:15 0.124288
14 *284:12 *284:14 0.497131
15 *284:11 *284:13 1.4
16 *284:10 *284:12 1.4
17 *284:9 *284:11 1.98852
18 *284:8 *284:10 2.36148
19 *284:8 *284:9 1.4
20 *284:7 *284:8 0.248576
21 *284:6 *284:7 1.4
22 *284:5 *284:6 0.994261
23 *284:4 *284:5 1.4
24 *284:3 *284:4 1.11859
25 *284:2 *284:3 1.4
26 *284:1 *284:2 0.248565
27 *1235:SI *284:1 1.4
*END

*D_NET *285 0.00383148

*CONN
*I *1233:SI I *C 35.235 28.855 *L 0.00172 *D SDFFQX1
*I *1342:B I *C 26.83 23.975 *L 0.00164 *D MXI2XL
*I *1220:Q O *C 26.535 21.605 *L 0 *D SDFFQX1
*I *1177:A1 I *C 25.375 16.385 *L 0.00171 *D AOI22XL

*CAP
1 *285:1 0.0003768
2 *285:2 0.0003768
3 *285:3 0.000692344
4 *285:4 0.000743629
5 *285:5 0.000190412
6 *285:6 5.12847e-05
7 *285:7 0.000190412
8 *285:8 1.75091e-05
9 *285:9 7.69271e-05
10 *285:10 1.78739e-05
11 *285:11 7.69271e-05
12 *285:12 3.64773e-07
13 *285:13 0.000148098
14 *285:16 0.000148098
15 *285:17 0.000114654
16 *285:18 0.000114654
17 *285:19 0.000225577
18 *285:20 0.000225577
19 *285:21 2.17687e-05
20 *285:22 2.17687e-05

*RES
1 *285:23 *1177:A1 1.4
2 *285:22 *285:23 1.4
3 *285:21 *285:22 0.124289
4 *285:20 *285:21 1.4
5 *285:19 *285:20 1.36712
6 *285:18 *285:19 1.4
7 *285:17 *285:18 0.621435
8 *285:16 *285:17 1.4
9 *285:13 *285:16 0.870017
10 *285:13 *1220:Q 1.4
11 *285:12 *1342:B 1.4
12 *285:11 *285:13 1.4
13 *285:10 *285:12 0.0021429
14 *285:9 *285:11 0.372848
15 *285:8 *285:10 0.102859
16 *285:7 *285:9 1.4
17 *285:6 *285:8 1.4
18 *285:5 *285:7 1.11859
19 *285:4 *285:6 0.248565
20 *285:4 *285:5 1.4
21 *285:3 *285:4 3.35563
22 *285:2 *285:3 1.4
23 *285:1 *285:2 1.98861
24 *1233:SI *285:1 1.4
*END

*D_NET *286 0.00554808

*CONN
*I *1354:B0 I *C 36.975 20.735 *L 0.00171 *D AO22XL
*I *1236:SI I *C 41.035 26.245 *L 0.00172 *D SDFFQX1
*I *1219:Q O *C 31.175 33.495 *L 0 *D SDFFQX1
*I *1301:B I *C 39.295 36.685 *L 0.00167 *D NAND2XL

*CAP
1 *286:2 0.000102569
2 *286:3 0.000102569
3 *286:4 0.00033851
4 *286:5 0.00033851
5 *286:6 0.000307708
6 *286:7 0.000307708
7 *286:8 2.11568e-05
8 *286:9 0.000669984
9 *286:10 0.000648827
10 *286:11 0.000153854
11 *286:12 2.86085e-05
12 *286:13 0.000153854
13 *286:14 0.000801038
14 *286:15 4.4329e-05
15 *286:16 0.000302249
16 *286:17 0.000772429
17 *286:18 4.4329e-05
18 *286:19 0.000302249
19 *286:20 2.51874e-05
20 *286:22 2.86085e-05
21 *286:23 2.51874e-05
22 *286:24 2.86085e-05

*RES
1 *286:26 *1301:B 1.4
2 *286:24 *286:26 1.4
3 *286:23 *1219:Q 1.4
4 *286:22 *286:24 0.124289
5 *286:20 *286:23 0.124288
6 *286:19 *286:22 1.4
7 *286:18 *1236:SI 1.4
8 *286:17 *286:20 1.4
9 *286:16 *286:19 1.49145
10 *286:15 *286:18 0.248576
11 *286:14 *286:17 3.3558
12 *286:14 *286:16 1.4
13 *286:13 *286:15 1.4
14 *286:12 *286:14 0.124289
15 *286:11 *286:13 0.745696
16 *286:10 *286:12 1.4
17 *286:9 *286:11 1.4
18 *286:9 *286:10 3.23148
19 *286:8 *286:9 0.124288
20 *286:7 *286:8 1.4
21 *286:6 *286:7 1.49139
22 *286:5 *286:6 1.4
23 *286:4 *286:5 1.98861
24 *286:3 *286:4 1.4
25 *286:2 *286:3 0.497131
26 *286:1 *286:2 1.4
27 *1354:B0 *286:1 1.4
*END

*D_NET *287 0.00373439

*CONN
*I *1241:SI I *C 95.555 62.785 *L 0.00172 *D SDFFQX1
*I *1286:A1 I *C 94.975 47.415 *L 0.00168 *D AO22XL
*I *1077:A0 I *C 91.785 47.125 *L 0.00264 *D AOI22X1
*I *1245:Q O *C 94.685 43.935 *L 0 *D SDFFQX1

*CAP
1 *287:2 2.29494e-05
2 *287:3 2.29494e-05
3 *287:4 0.00121976
4 *287:5 0.00121976
5 *287:6 7.1453e-05
6 *287:7 7.1453e-05
7 *287:8 2.22686e-05
8 *287:10 0.000267224
9 *287:11 0.000261994
10 *287:12 0.000244955
11 *287:13 0.000261994
12 *287:14 2.38177e-05
13 *287:16 2.38177e-05

*RES
1 *287:18 *1245:Q 1.4
2 *287:16 *287:18 1.4
3 *287:15 *1077:A0 1.4
4 *287:14 *287:16 0.124283
5 *287:13 *287:15 1.4
6 *287:12 *287:14 1.4
7 *287:11 *287:13 1.36711
8 *287:10 *287:12 1.36717
9 *287:10 *287:11 1.4
10 *287:8 *287:10 0.124288
11 *287:8 *1286:A1 1.4
12 *287:7 *287:8 1.4
13 *287:6 *287:7 0.372848
14 *287:5 *287:6 1.4
15 *287:4 *287:5 6.58714
16 *287:3 *287:4 1.4
17 *287:2 *287:3 0.124289
18 *287:1 *287:2 1.4
19 *1241:SI *287:1 1.4
*END

*D_NET *288 0.00353897

*CONN
*I *1084:A0 I *C 37.845 81.055 *L 0.00264 *D AOI22X1
*I *1244:Q O *C 42.195 79.025 *L 0 *D SDFFQX1
*I *1310:B I *C 38.135 75.835 *L 0.00167 *D NAND2XL
*I *1230:SI I *C 48.575 78.445 *L 0.00172 *D SDFFQX1

*CAP
1 *288:1 4.11354e-05
2 *288:2 4.11354e-05
3 *288:3 0.000126905
4 *288:4 0.000126905
5 *288:5 0.000299497
6 *288:6 0.000299497
7 *288:7 0.000395787
8 *288:8 0.000282705
9 *288:9 0.000113082
10 *288:10 0.000114388
11 *288:11 0.000151124
12 *288:12 0.000134955
13 *288:13 0.000151124
14 *288:14 2.05677e-05
15 *288:17 0.00055838
16 *288:18 0.00055838
17 *288:19 6.17031e-05
18 *288:20 6.17031e-05

*RES
1 *288:20 *1230:SI 1.4
2 *288:19 *288:20 0.372848
3 *288:18 *288:19 1.4
4 *288:17 *288:18 2.73422
5 *288:14 *288:17 1.4
6 *288:13 *1310:B 1.4
7 *288:12 *1244:Q 1.4
8 *288:12 *288:14 0.124283
9 *288:11 *288:13 0.745732
10 *288:10 *288:12 0.621429
11 *288:9 *288:11 1.4
12 *288:8 *288:10 1.4
13 *288:7 *288:9 0.497131
14 *288:7 *288:8 1.24283
15 *288:6 *288:7 1.4
16 *288:5 *288:6 1.73997
17 *288:4 *288:5 1.4
18 *288:3 *288:4 0.621414
19 *288:2 *288:3 1.4
20 *288:1 *288:2 0.248565
21 *1084:A0 *288:1 1.4
*END

*D_NET *289 0.00380503

*CONN
*I *1245:SI I *C 101.355 44.515 *L 0.00172 *D SDFFQX1
*I *1243:Q O *C 94.395 32.045 *L 0 *D SDFFQX1
*I *1285:A1 I *C 93.815 33.785 *L 0.00168 *D AO22XL
*I *1063:A0 I *C 91.205 34.075 *L 0.00264 *D AOI22X1

*CAP
1 *289:2 0.000500171
2 *289:3 0.000500171
3 *289:4 0.000757134
4 *289:5 0.000757134
5 *289:6 7.1453e-05
6 *289:7 0.000119088
7 *289:8 0.000200418
8 *289:9 0.000261994
9 *289:10 0.000200418
10 *289:11 6.68059e-05
11 *289:12 0.000214359
12 *289:14 6.68059e-05
13 *289:15 4.45373e-05
14 *289:17 4.45373e-05

*RES
1 *289:17 *1063:A0 1.4
2 *289:15 *289:17 0.248576
3 *289:14 *1285:A1 1.4
4 *289:12 *289:15 1.4
5 *289:11 *289:14 0.372863
6 *289:10 *1243:Q 1.4
7 *289:9 *289:12 1.11854
8 *289:9 *289:11 1.4
9 *289:8 *289:10 1.11859
10 *289:7 *289:9 0.248565
11 *289:7 *289:8 1.4
12 *289:6 *289:7 0.372848
13 *289:5 *289:6 1.4
14 *289:4 *289:5 4.22578
15 *289:3 *289:4 1.4
16 *289:2 *289:3 2.60994
17 *289:1 *289:2 1.4
18 *1245:SI *289:1 1.4
*END

*D_NET *290 0.00614954

*CONN
*I *1227:SI I *C 69.455 70.615 *L 0.00172 *D SDFFQX1
*I *1042:A0 I *C 47.125 68.295 *L 0.00156 *D AOI222XL
*I *1242:Q O *C 45.385 64.815 *L 0 *D SDFFQX1
*I *1309:B I *C 43.935 68.005 *L 0.00167 *D NAND2XL

*CAP
1 *290:2 0.00220967
2 *290:3 0.00220967
3 *290:4 0.000151124
4 *290:5 0.000201499
5 *290:6 8.48115e-05
6 *290:7 5.03747e-05
7 *290:8 8.48115e-05
8 *290:9 8.48115e-05
9 *290:10 7.5562e-05
10 *290:11 8.48115e-05
11 *290:12 0.000352623
12 *290:14 0.000141352
13 *290:15 0.000277061
14 *290:17 0.000141352

*RES
1 *290:19 *1309:B 1.4
2 *290:17 *290:19 1.4
3 *290:15 *1242:Q 1.4
4 *290:14 *290:17 0.621414
5 *290:13 *1042:A0 1.4
6 *290:12 *290:15 1.36718
7 *290:12 *290:14 1.4
8 *290:11 *290:13 1.4
9 *290:10 *290:12 0.372866
10 *290:9 *290:11 0.372849
11 *290:8 *290:10 1.4
12 *290:7 *290:9 1.4
13 *290:6 *290:8 0.372849
14 *290:5 *290:7 0.248578
15 *290:5 *290:6 1.4
16 *290:4 *290:5 0.745732
17 *290:3 *290:4 1.4
18 *290:2 *290:3 9.94298
19 *290:1 *290:2 1.4
20 *1227:SI *290:1 1.4
*END

*D_NET *291 0.00398428

*CONN
*I *1284:A1 I *C 92.365 63.075 *L 0.00168 *D AO22XL
*I *1071:A0 I *C 91.205 62.785 *L 0.00264 *D AOI22X1
*I *1241:Q O *C 102.225 63.365 *L 0 *D SDFFQX1
*I *1246:SI I *C 101.355 75.835 *L 0.00172 *D SDFFQX1

*CAP
1 *291:1 2.33514e-05
2 *291:2 2.33514e-05
3 *291:3 0.000757331
4 *291:4 0.000665533
5 *291:5 9.17977e-05
6 *291:6 4.67028e-05
7 *291:8 0.00105081
8 *291:10 0.000114747
9 *291:11 0.00100411
10 *291:12 0.000114747
11 *291:13 4.58988e-05
12 *291:15 4.58988e-05

*RES
1 *291:17 *1246:SI 1.4
2 *291:15 *291:17 1.4
3 *291:14 *1241:Q 1.4
4 *291:13 *291:15 0.248578
5 *291:12 *291:14 1.4
6 *291:11 *291:13 1.4
7 *291:10 *291:12 0.621444
8 *291:8 *291:11 5.34424
9 *291:8 *291:10 1.4
10 *291:7 *1071:A0 1.4
11 *291:6 *291:8 0.248569
12 *291:5 *291:7 1.4
13 *291:4 *291:6 1.4
14 *291:3 *291:5 0.497155
15 *291:3 *291:4 3.60437
16 *291:2 *291:3 1.4
17 *291:1 *291:2 0.124285
18 *1284:A1 *291:1 1.4
*END

*D_NET *292 0.00184211

*CONN
*I *1106:A0 I *C 22.765 78.445 *L 0.00264 *D AOI22X1
*I *1226:SI I *C 24.215 78.445 *L 0.00172 *D SDFFQX1
*I *1306:B I *C 23.925 75.835 *L 0.00167 *D NAND2XL
*I *1240:Q O *C 18.705 73.805 *L 0 *D SDFFQX1

*CAP
1 *292:2 0.00010312
2 *292:3 0.00010312
3 *292:4 0.00021069
4 *292:6 0.000376082
5 *292:7 2.20927e-05
6 *292:8 0.000165392
7 *292:9 2.20927e-05
8 *292:10 0.00041976
9 *292:12 0.00041976

*RES
1 *292:14 *1240:Q 1.4
2 *292:12 *292:14 1.4
3 *292:11 *1306:B 1.4
4 *292:10 *292:12 2.36149
5 *292:9 *292:11 1.4
6 *292:8 *292:10 1.4
7 *292:7 *292:9 0.124289
8 *292:6 *292:8 0.869979
9 *292:6 *292:7 1.4
10 *292:4 *292:6 1.11855
11 *292:4 *1226:SI 1.4
12 *292:3 *292:4 1.4
13 *292:2 *292:3 0.621415
14 *292:1 *292:2 1.4
15 *1106:A0 *292:1 1.4
*END

*D_NET *293 0.00398055

*CONN
*I *1242:SI I *C 38.715 65.395 *L 0.00172 *D SDFFQX1
*I *1239:Q O *C 30.885 68.585 *L 0 *D SDFFQX1
*I *1282:A1 I *C 38.715 70.325 *L 0.00168 *D AO22XL
*I *1070:B0 I *C 28.565 70.325 *L 0.00265 *D AOI22X1

*CAP
1 *293:2 5.6541e-05
2 *293:3 5.6541e-05
3 *293:4 0.000176311
4 *293:5 0.000176311
5 *293:6 0.000113082
6 *293:7 0.000819844
7 *293:8 0.000251873
8 *293:9 0.000763303
9 *293:10 0.000251873
10 *293:11 0.000100749
11 *293:12 5.6541e-05
12 *293:13 5.6541e-05
13 *293:14 0.000100749
14 *293:15 0.000277061
15 *293:16 5.6541e-05
16 *293:18 0.000277061
17 *293:20 0.000169623
18 *293:22 0.000169623
19 *293:23 2.51873e-05
20 *293:24 2.51873e-05

*RES
1 *293:24 *1070:B0 1.4
2 *293:23 *293:24 0.124289
3 *293:22 *293:23 1.4
4 *293:20 *293:22 0.745697
5 *293:19 *1282:A1 1.4
6 *293:18 *293:20 1.4
7 *293:16 *293:19 1.4
8 *293:15 *293:18 1.36718
9 *293:14 *1239:Q 1.4
10 *293:13 *293:16 0.248566
11 *293:12 *293:15 1.4
12 *293:11 *293:14 0.497155
13 *293:10 *293:13 1.4
14 *293:9 *293:12 0.248566
15 *293:9 *293:11 1.4
16 *293:8 *293:10 1.24289
17 *293:7 *293:9 3.10707
18 *293:7 *293:8 1.4
19 *293:6 *293:7 0.497131
20 *293:5 *293:6 1.4
21 *293:4 *293:5 0.870021
22 *293:3 *293:4 1.4
23 *293:2 *293:3 0.248566
24 *293:1 *293:2 1.4
25 *1242:SI *293:1 1.4
*END

*D_NET *294 0.00279558

*CONN
*I *1062:A0 I *C 23.345 57.565 *L 0.00264 *D AOI22X1
*I *1305:B I *C 25.375 57.565 *L 0.00167 *D NAND2XL
*I *1225:SI I *C 28.855 65.395 *L 0.00172 *D SDFFQX1
*I *1238:Q O *C 29.725 59.595 *L 0 *D SDFFQX1

*CAP
1 *294:1 2.36274e-05
2 *294:2 2.36274e-05
3 *294:3 0.000154649
4 *294:4 0.000154649
5 *294:5 2.36274e-05
6 *294:6 0.000307156
7 *294:7 0.000283529
8 *294:9 0.000323801
9 *294:10 0.000323801
10 *294:11 0.000503747
11 *294:12 0.00037781
12 *294:13 0.000125937
13 *294:15 8.48115e-05
14 *294:16 8.48115e-05

*RES
1 *294:17 *1238:Q 1.4
2 *294:16 *294:17 1.4
3 *294:15 *294:16 0.372849
4 *294:13 *294:15 1.4
5 *294:12 *1225:SI 1.4
6 *294:11 *294:13 0.621444
7 *294:11 *294:12 1.86433
8 *294:10 *294:11 1.4
9 *294:9 *294:10 1.49141
10 *294:7 *294:9 1.4
11 *294:6 *1305:B 1.4
12 *294:6 *294:7 1.49139
13 *294:5 *294:6 0.124283
14 *294:4 *294:5 1.4
15 *294:3 *294:4 0.870021
16 *294:2 *294:3 1.4
17 *294:1 *294:2 0.124283
18 *1062:A0 *294:1 1.4
*END

*D_NET *295 0.00233965

*CONN
*I *1303:B I *C 42.775 41.905 *L 0.00167 *D NAND2XL
*I *1094:A0 I *C 42.485 47.125 *L 0.00264 *D AOI22X1
*I *1237:Q O *C 38.715 43.935 *L 0 *D SDFFQX1
*I *1223:SI I *C 37.555 41.905 *L 0.00172 *D SDFFQX1

*CAP
1 *295:1 0.000201499
2 *295:2 0.000201499
3 *295:3 2.86085e-05
4 *295:4 0.000400519
5 *295:5 0.000251874
6 *295:6 0.00037191
7 *295:7 0.000251874
8 *295:8 2.51874e-05
9 *295:10 5.03749e-05
10 *295:12 2.51874e-05
11 *295:13 0.000114434
12 *295:14 0.000114434
13 *295:15 0.000151125
14 *295:16 0.000151125

*RES
1 *295:16 *1223:SI 1.4
2 *295:15 *295:16 0.745726
3 *295:14 *295:15 1.4
4 *295:13 *295:14 0.497155
5 *295:12 *295:13 1.4
6 *295:10 *295:12 0.124288
7 *295:10 *1237:Q 1.4
8 *295:8 *295:10 0.124288
9 *295:7 *1094:A0 1.4
10 *295:6 *295:8 1.4
11 *295:5 *295:7 1.24288
12 *295:4 *295:6 1.61575
13 *295:4 *295:5 1.4
14 *295:3 *295:4 0.124289
15 *295:2 *295:3 1.4
16 *295:1 *295:2 0.994302
17 *1303:B *295:1 1.4
*END

*D_NET *296 0.00308347

*CONN
*I *1222:SI I *C 52.055 34.075 *L 0.00172 *D SDFFQX1
*I *1302:B I *C 45.675 31.465 *L 0.00167 *D NAND2XL
*I *1158:AN I *C 45.385 28.855 *L 0.00174 *D NOR2BXL
*I *1236:Q O *C 47.705 26.825 *L 0 *D SDFFQX1

*CAP
1 *296:2 2.86085e-05
2 *296:3 2.86085e-05
3 *296:4 0.000251874
4 *296:5 0.000251874
5 *296:6 0.000600778
6 *296:7 0.000629387
7 *296:8 2.51874e-05
8 *296:9 2.86085e-05
9 *296:10 2.51874e-05
10 *296:11 0.000201499
11 *296:13 0.000377812
12 *296:15 0.000176312
13 *296:16 0.000228868
14 *296:17 0.000228868

*RES
1 *296:18 *1236:Q 1.4
2 *296:17 *296:18 1.4
3 *296:16 *296:17 0.99431
4 *296:15 *296:16 1.4
5 *296:13 *296:15 0.870014
6 *296:13 *1158:AN 1.4
7 *296:11 *296:13 0.994302
8 *296:10 *1302:B 1.4
9 *296:9 *296:11 1.4
10 *296:8 *296:10 0.124288
11 *296:7 *296:9 0.124289
12 *296:7 *296:8 1.4
13 *296:6 *296:7 2.61006
14 *296:5 *296:6 1.4
15 *296:4 *296:5 1.24288
16 *296:3 *296:4 1.4
17 *296:2 *296:3 0.124289
18 *296:1 *296:2 1.4
19 *1222:SI *296:1 1.4
*END

*D_NET *297 0.00377552

*CONN
*I *1186:A0 I *C 72.645 28.855 *L 0.00264 *D AOI22X1
*I *1235:Q O *C 83.665 32.045 *L 0 *D SDFFQX1
*I *1280:A1 I *C 77.575 33.785 *L 0.00168 *D AO22XL
*I *1243:SI I *C 87.725 31.465 *L 0.00172 *D SDFFQX1

*CAP
1 *297:1 4.80149e-05
2 *297:2 4.80149e-05
3 *297:3 0.00052512
4 *297:4 0.00052512
5 *297:5 0.000144045
6 *297:6 0.000144045
7 *297:7 0.000509722
8 *297:8 0.000454446
9 *297:9 5.52757e-05
10 *297:10 6.68059e-05
11 *297:11 0.000216067
12 *297:12 6.68059e-05
13 *297:13 0.000216067
14 *297:14 0.000333447
15 *297:17 0.000333447
16 *297:18 4.45373e-05
17 *297:19 4.45373e-05

*RES
1 *297:19 *1243:SI 1.4
2 *297:18 *297:19 0.248576
3 *297:17 *297:18 1.4
4 *297:14 *297:17 1.73996
5 *297:13 *1280:A1 1.4
6 *297:12 *1235:Q 1.4
7 *297:12 *297:14 1.4
8 *297:11 *297:13 1.11854
9 *297:10 *297:12 0.372863
10 *297:9 *297:11 1.4
11 *297:8 *297:10 1.4
12 *297:7 *297:9 0.248576
13 *297:7 *297:8 2.36137
14 *297:6 *297:7 1.4
15 *297:5 *297:6 0.745696
16 *297:4 *297:5 1.4
17 *297:3 *297:4 2.36148
18 *297:2 *297:3 1.4
19 *297:1 *297:2 0.248565
20 *1186:A0 *297:1 1.4
*END

*D_NET *298 0.00216086

*CONN
*I *1356:A I *C 15.225 28.855 *L 0.0017 *D MXI2XL
*I *1176:A1 I *C 15.515 26.825 *L 0.00171 *D AOI22XL
*I *1234:Q O *C 18.705 21.605 *L 0 *D SDFFQX1
*I *1220:SI I *C 19.865 21.025 *L 0.00172 *D SDFFQX1

*CAP
1 *298:2 0.000142195
2 *298:3 0.000142195
3 *298:4 0.000164075
4 *298:5 0.000273941
5 *298:6 0.000118496
6 *298:7 0.000109866
7 *298:8 0.000118496
8 *298:9 0.000130612
9 *298:11 0.000130612
10 *298:13 0.000246084
11 *298:14 0.000266591
12 *298:15 8.70747e-05
13 *298:16 2.0507e-05
14 *298:17 8.70747e-05
15 *298:19 6.1521e-05
16 *298:20 6.1521e-05

*RES
1 *298:20 *1220:SI 1.4
2 *298:19 *298:20 0.37285
3 *298:17 *298:19 1.4
4 *298:16 *1234:Q 1.4
5 *298:15 *298:17 0.497155
6 *298:14 *298:16 0.124283
7 *298:14 *298:15 1.4
8 *298:13 *298:14 1.4914
9 *298:11 *298:13 1.4
10 *298:10 *1176:A1 1.4
11 *298:9 *298:11 0.745732
12 *298:8 *298:10 1.4
13 *298:7 *298:9 1.4
14 *298:6 *298:8 0.621444
15 *298:5 *298:7 0.621415
16 *298:5 *298:6 1.4
17 *298:4 *298:5 0.869979
18 *298:3 *298:4 1.4
19 *298:2 *298:3 0.745732
20 *298:1 *298:2 1.4
21 *1356:A *298:1 1.4
*END

*D_NET *299 0.003507

*CONN
*I *1219:SI I *C 37.845 34.075 *L 0.00172 *D SDFFQX1
*I *1308:B I *C 36.395 31.465 *L 0.00167 *D NAND2XL
*I *1233:Q O *C 41.905 28.275 *L 0 *D SDFFQX1
*I *1180:A0 I *C 36.975 26.245 *L 0.00264 *D AOI22X1

*CAP
1 *299:2 0.000171651
2 *299:3 0.000171651
3 *299:4 0.000226687
4 *299:5 0.000402999
5 *299:6 2.86085e-05
6 *299:7 0.000176312
7 *299:8 2.86085e-05
8 *299:9 0.000629387
9 *299:11 0.00057217
10 *299:12 5.7217e-05
11 *299:14 0.00010075
12 *299:15 0.000277062
13 *299:16 0.00010075
14 *299:17 0.000277062
15 *299:19 0.000143042
16 *299:20 0.000143042

*RES
1 *299:21 *1180:A0 1.4
2 *299:20 *299:21 1.4
3 *299:19 *299:20 0.621444
4 *299:17 *299:19 1.4
5 *299:16 *1233:Q 1.4
6 *299:15 *299:17 1.36717
7 *299:14 *299:16 0.497151
8 *299:12 *299:15 1.4
9 *299:11 *299:14 1.4
10 *299:10 *1308:B 1.4
11 *299:9 *299:12 0.248577
12 *299:9 *299:11 2.48577
13 *299:8 *299:10 1.4
14 *299:7 *299:9 1.4
15 *299:6 *299:8 0.124289
16 *299:5 *299:7 0.870014
17 *299:5 *299:6 1.4
18 *299:4 *299:5 1.11859
19 *299:3 *299:4 1.4
20 *299:2 *299:3 0.745732
21 *299:1 *299:2 1.4
22 *1219:SI *299:1 1.4
*END

*D_NET *300 0.00168995

*CONN
*I *1281:A0 I *C 41.035 41.905 *L 0.00164 *D OAI21XL
*I *1338:Y O *C 40.6625 47.415 *L 0 *D CLKINVX1
*I *1262:A0 I *C 40.455 41.905 *L 0.00267 *D OAI211X1

*CAP
1 *300:1 0.00010075
2 *300:2 0.00010075
3 *300:3 2.86085e-05
4 *300:4 5.7217e-05
5 *300:5 0.000579311
6 *300:6 2.86085e-05
7 *300:7 0.000586259
8 *300:8 0.00010075
9 *300:9 6.94826e-06
10 *300:10 0.00010075

*RES
1 *300:10 *1262:A0 1.4
2 *300:9 *1338:Y 1.4
3 *300:8 *300:10 0.497151
4 *300:7 *300:9 0.0342863
5 *300:6 *300:8 1.4
6 *300:5 *300:7 2.85862
7 *300:4 *300:6 0.124289
8 *300:4 *300:5 1.4
9 *300:3 *300:4 0.124289
10 *300:2 *300:3 1.4
11 *300:1 *300:2 0.497151
12 *1281:A0 *300:1 1.4
*END

*D_NET *301 0.00107156

*CONN
*I *1334:A I *C 30.015 28.855 *L 0.00173 *D OR2X1
*I *1336:Y O *C 30.595 34.365 *L 0 *D NAND3X1

*CAP
1 *301:1 0.000478561
2 *301:2 0.000478561
3 *301:3 5.7217e-05
4 *301:4 5.7217e-05

*RES
1 *301:5 *1336:Y 1.4
2 *301:4 *301:5 1.4
3 *301:3 *301:4 0.248577
4 *301:2 *301:3 1.4
5 *301:1 *301:2 2.36147
6 *1334:A *301:1 1.4
*END

*D_NET *302 0.00277686

*CONN
*I *1326:B I *C 29.435 36.685 *L 0.00171 *D NOR2XL
*I *1321:A1 I *C 26.245 33.495 *L 0.00163 *D AO21X1
*I *1335:Y O *C 30.595 32.045 *L 0 *D NAND4BBXL
*I *1331:AN I *C 32.335 28.565 *L 0.00178 *D NAND2BX1

*CAP
1 *302:2 2.86085e-05
2 *302:3 2.86085e-05
3 *302:4 0.000251874
4 *302:5 0.000251874
5 *302:6 2.86085e-05
6 *302:7 0.000286085
7 *302:8 0.000151125
8 *302:9 0.000257476
9 *302:10 0.000151125
10 *302:11 2.51874e-05
11 *302:12 0.000171651
12 *302:13 2.51874e-05
13 *302:14 0.000343302
14 *302:16 0.000171651
15 *302:18 0.000302249
16 *302:20 0.000302249

*RES
1 *302:20 *1331:AN 1.4
2 *302:18 *302:20 1.49145
3 *302:17 *1335:Y 1.4
4 *302:16 *302:18 1.4
5 *302:14 *302:17 1.4
6 *302:14 *302:16 0.745732
7 *302:13 *1321:A1 1.4
8 *302:12 *302:14 0.745732
9 *302:11 *302:13 0.124288
10 *302:10 *302:12 1.4
11 *302:9 *302:11 1.4
12 *302:8 *302:10 0.745726
13 *302:7 *302:9 1.1186
14 *302:7 *302:8 1.4
15 *302:6 *302:7 0.124289
16 *302:5 *302:6 1.4
17 *302:4 *302:5 1.24288
18 *302:3 *302:4 1.4
19 *302:2 *302:3 0.124289
20 *302:1 *302:2 1.4
21 *1326:B *302:1 1.4
*END

*D_NET *303 0.00119989

*CONN
*I *1327:B I *C 27.405 31.465 *L 0.00167 *D NAND2XL
*I *1325:B I *C 27.405 28.855 *L 0.00167 *D NAND2XL
*I *1333:Y O *C 26.1625 31.755 *L 0 *D INVX1

*CAP
1 *303:1 0.000226687
2 *303:2 0.000226687
3 *303:4 2.86085e-05
4 *303:5 2.86085e-05
5 *303:6 0.000251874
6 *303:7 0.000251874
7 *303:8 8.58254e-05
8 *303:9 8.58254e-05
9 *303:10 6.94826e-06
10 *303:11 6.94826e-06

*RES
1 *303:11 *1333:Y 1.4
2 *303:10 *303:11 0.0342863
3 *303:9 *303:10 1.4
4 *303:8 *303:9 0.372866
5 *303:7 *303:8 1.4
6 *303:6 *303:7 1.24288
7 *303:5 *303:6 1.4
8 *303:4 *303:5 0.124289
9 *303:2 *303:4 1.4
10 *303:2 *1325:B 1.4
11 *303:1 *303:2 1.11859
12 *1327:B *303:1 1.4
*END

*D_NET *304 0.0046359

*CONN
*I *1332:B I *C 30.595 36.685 *L 0.00171 *D NOR2XL
*I *1330:B I *C 27.405 36.685 *L 0.00167 *D NAND2XL
*I *1333:A I *C 26.535 31.755 *L 0.00273 *D INVX1
*I *1334:Y O *C 29.435 29.145 *L 0 *D OR2X1
*I *1329:B I *C 18.125 28.855 *L 0.00171 *D NOR2XL

*CAP
1 *304:1 2.51874e-05
2 *304:2 2.51874e-05
3 *304:3 0.000314693
4 *304:4 0.000526379
5 *304:5 2.51874e-05
6 *304:6 0.000211685
7 *304:7 2.51874e-05
8 *304:8 0.00037503
9 *304:10 0.000562544
10 *304:11 0.00012586
11 *304:12 0.000187515
12 *304:13 0.00012586
13 *304:14 0.000980726
14 *304:16 0.000411945
15 *304:17 0.000568782
16 *304:19 2.51874e-05
17 *304:20 4.68787e-05
18 *304:21 2.51874e-05
19 *304:22 4.68787e-05

*RES
1 *304:22 *1329:B 1.4
2 *304:21 *1334:Y 1.4
3 *304:20 *304:22 0.248565
4 *304:19 *304:21 0.124288
5 *304:17 *304:20 1.4
6 *304:16 *304:19 1.4
7 *304:15 *1333:A 1.4
8 *304:14 *304:17 2.98293
9 *304:14 *304:16 1.86433
10 *304:13 *304:15 1.4
11 *304:12 *304:14 1.4
12 *304:11 *304:13 0.621444
13 *304:10 *304:12 0.994261
14 *304:10 *304:11 1.4
15 *304:8 *304:10 1.98852
16 *304:7 *1330:B 1.4
17 *304:6 *304:8 1.4
18 *304:5 *304:7 0.124288
19 *304:4 *304:6 0.99431
20 *304:4 *304:5 1.4
21 *304:3 *304:4 1.36718
22 *304:2 *304:3 1.4
23 *304:1 *304:2 0.124288
24 *1332:B *304:1 1.4
*END

*D_NET *305 0.00843063

*CONN
*I *1274:A1 I *C 31.465 70.905 *L 0.00166 *D OAI21XL
*I *1278:A1 I *C 34.945 70.905 *L 0.00166 *D OAI21XL
*I *1276:A1 I *C 39.875 62.495 *L 0.00166 *D OAI21XL
*I *1328:Y O *C 35.3175 54.665 *L 0 *D CLKINVX1
*I *1273:A1 I *C 31.175 50.025 *L 0.00166 *D OAI21XL
*I *1271:A1 I *C 29.725 39.585 *L 0.00166 *D OAI21XL

*CAP
1 *305:1 2.51873e-05
2 *305:2 2.51873e-05
3 *305:3 0.000339246
4 *305:4 0.000339246
5 *305:5 2.51873e-05
6 *305:6 0.000705246
7 *305:8 0.000680058
8 *305:9 0.000508869
9 *305:10 0.000480598
10 *305:11 2.82705e-05
11 *305:12 5.03747e-05
12 *305:13 0.000730433
13 *305:14 5.03747e-05
14 *305:15 0.000805995
15 *305:17 5.6541e-05
16 *305:18 7.5562e-05
17 *305:19 5.6541e-05
18 *305:20 0.000339246
19 *305:21 7.3825e-06
20 *305:22 0.000339246
21 *305:23 7.3825e-06
22 *305:24 0.000327436
23 *305:26 0.001209
24 *305:28 0.00088156
25 *305:29 0.000143042
26 *305:30 0.000143042
27 *305:31 2.51874e-05
28 *305:32 2.51874e-05

*RES
1 *305:32 *1271:A1 1.4
2 *305:31 *305:32 0.124288
3 *305:30 *305:31 1.4
4 *305:29 *305:30 0.621444
5 *305:28 *305:29 1.4
6 *305:26 *305:28 4.35007
7 *305:26 *1273:A1 1.4
8 *305:24 *305:26 1.61575
9 *305:23 *1328:Y 1.4
10 *305:22 *305:24 1.4
11 *305:21 *305:23 0.0364295
12 *305:20 *305:22 1.49139
13 *305:19 *305:21 1.4
14 *305:18 *305:20 1.4
15 *305:17 *305:19 0.248566
16 *305:15 *305:18 0.372866
17 *305:15 *305:17 1.4
18 *305:14 *1276:A1 1.4
19 *305:13 *305:15 3.60437
20 *305:12 *305:14 0.248578
21 *305:11 *305:13 1.4
22 *305:10 *305:12 1.4
23 *305:9 *305:11 0.124283
24 *305:9 *305:10 2.11281
25 *305:8 *305:9 1.4
26 *305:6 *305:8 3.3558
27 *305:6 *1278:A1 1.4
28 *305:5 *305:6 0.124289
29 *305:4 *305:5 1.4
30 *305:3 *305:4 1.49139
31 *305:2 *305:3 1.4
32 *305:1 *305:2 0.124289
33 *1274:A1 *305:1 1.4
*END

*D_NET *306 0.0255547

*CONN
*I *1261:B0 I *C 100.195 70.905 *L 0.00171 *D AO22XL
*I *1293:B0 I *C 101.065 57.275 *L 0.00171 *D AO22XL
*I *1296:B0 I *C 101.355 55.245 *L 0.00171 *D AO22XL
*I *1295:B0 I *C 100.485 39.585 *L 0.00171 *D AO22XL
*I *1289:B0 I *C 83.955 39.585 *L 0.00171 *D AO22XL
*I *1290:B0 I *C 43.935 55.245 *L 0.00171 *D AO22XL
*I *1328:A I *C 34.945 54.665 *L 0.00273 *D CLKINVX1
*I *1332:Y O *C 30.885 36.395 *L 0 *D NOR2XL
*I *1292:B0 I *C 34.945 62.495 *L 0.00171 *D AO22XL

*CAP
1 *306:1 0.00109752
2 *306:2 0.00109752
3 *306:3 4.58988e-05
4 *306:4 6.88482e-05
5 *306:5 2.29494e-05
6 *306:6 0.00016346
7 *306:8 0.00016346
8 *306:10 6.88482e-05
9 *306:11 4.58988e-05
10 *306:12 2.29494e-05
11 *306:14 0.00121388
12 *306:16 0.00121388
13 *306:18 0.00135761
14 *306:19 0.00135761
15 *306:20 0.00116717
16 *306:22 0.00116717
17 *306:24 0.00371896
18 *306:25 0.00459535
19 *306:26 5.03747e-05
20 *306:27 0.000876385
21 *306:28 5.03747e-05
22 *306:29 0.00176312
23 *306:31 0.000125937
24 *306:33 0.00163718
25 *306:34 0.000113082
26 *306:35 0.000400519
27 *306:36 0.000113082
28 *306:37 0.000400519
29 *306:38 0.000554122
30 *306:39 5.03749e-05
31 *306:40 0.000554122
32 *306:41 5.03749e-05
33 *306:42 0.000113082
34 *306:44 0.000113082

*RES
1 *306:45 *1292:B0 1.4
2 *306:44 *306:45 1.4
3 *306:42 *306:44 0.497131
4 *306:41 *1332:Y 1.4
5 *306:40 *306:42 1.4
6 *306:39 *306:41 0.248575
7 *306:38 *306:40 2.73435
8 *306:37 *306:39 1.4
9 *306:36 *306:38 1.4
10 *306:35 *306:37 1.74004
11 *306:34 *306:36 0.497131
12 *306:33 *306:35 1.4
13 *306:31 *306:34 1.4
14 *306:29 *306:33 8.07871
15 *306:29 *1328:A 1.4
16 *306:29 *306:31 0.621444
17 *306:28 *1290:B0 1.4
18 *306:27 *306:29 1.4
19 *306:26 *306:28 0.248578
20 *306:25 *306:27 3.85277
21 *306:25 *306:26 1.4
22 *306:24 *306:25 17.1517
23 *306:22 *306:24 1.4
24 *306:21 *1289:B0 1.4
25 *306:20 *306:22 6.46294
26 *306:19 *306:21 1.4
27 *306:19 *306:20 1.4
28 *306:18 *306:19 7.08411
29 *306:16 *306:18 1.4
30 *306:16 *1295:B0 1.4
31 *306:14 *306:16 6.71151
32 *306:13 *1296:B0 1.4
33 *306:12 *306:14 1.4
34 *306:11 *306:13 1.4
35 *306:10 *306:12 0.124289
36 *306:10 *306:11 0.248578
37 *306:8 *306:10 1.4
38 *306:7 *1293:B0 1.4
39 *306:6 *306:8 0.869992
40 *306:5 *306:7 1.4
41 *306:4 *306:6 1.4
42 *306:4 *306:5 0.124289
43 *306:3 *306:4 0.248578
44 *306:2 *306:3 1.4
45 *306:1 *306:2 5.84137
46 *1261:B0 *306:1 1.4
*END

*D_NET *307 0.00823357

*CONN
*I *1319:B I *C 28.275 41.905 *L 0.00167 *D NAND2XL
*I *1298:A1 I *C 30.015 41.905 *L 0.00278 *D OAI211X1
*I *1262:A1 I *C 39.875 41.905 *L 0.00278 *D OAI211X1
*I *1320:B I *C 39.585 39.295 *L 0.00167 *D NAND2XL
*I *1331:Y O *C 33.205 27.985 *L 0 *D NAND2BX1
*I *1342:S0 I *C 26.535 23.635 *L 0.00372 *D MXI2XL

*CAP
1 *307:2 0.000171651
2 *307:3 0.00114434
3 *307:4 0.000972688
4 *307:6 0.000151125
5 *307:9 0.000151125
6 *307:10 2.86085e-05
7 *307:11 0.000657995
8 *307:12 7.55623e-05
9 *307:13 0.000629387
10 *307:14 7.55623e-05
11 *307:15 0.00105787
12 *307:17 0.00105787
13 *307:18 2.86085e-05
14 *307:20 2.86085e-05
15 *307:21 0.000364708
16 *307:22 0.000364708
17 *307:23 0.000615417
18 *307:24 0.000615417
19 *307:25 2.11568e-05
20 *307:26 2.11568e-05

*RES
1 *307:26 *1342:S0 1.4
2 *307:25 *307:26 0.124288
3 *307:24 *307:25 1.4
4 *307:23 *307:24 2.98278
5 *307:22 *307:23 1.4
6 *307:21 *307:22 1.98861
7 *307:20 *307:21 1.4
8 *307:18 *307:20 0.124289
9 *307:17 *1331:Y 1.4
10 *307:17 *307:18 1.4
11 *307:15 *307:17 5.22009
12 *307:14 *1320:B 1.4
13 *307:13 *307:15 1.4
14 *307:12 *307:14 0.372863
15 *307:11 *307:13 2.73435
16 *307:11 *307:12 1.4
17 *307:10 *307:11 0.124289
18 *307:9 *307:10 1.4
19 *307:6 *307:9 0.745726
20 *307:6 *1262:A1 1.4
21 *307:5 *1298:A1 1.4
22 *307:4 *307:6 1.4
23 *307:3 *307:5 1.4
24 *307:3 *307:4 4.22582
25 *307:2 *307:3 0.745732
26 *307:1 *307:2 1.4
27 *1319:B *307:1 1.4
*END

*D_NET *308 0.000910066

*CONN
*I *1318:A I *C 25.665 39.295 *L 0.00157 *D NAND2XL
*I *1330:Y O *C 27.405 37.265 *L 0 *D NAND2XL
*I *1322:B I *C 28.565 39.005 *L 0.00284 *D NAND2BX1

*CAP
1 *308:2 0.000164287
2 *308:3 0.000164287
3 *308:4 2.51874e-05
4 *308:5 0.000176312
5 *308:6 0.000114434
6 *308:7 0.000151125
7 *308:8 0.000114434

*RES
1 *308:10 *1322:B 1.4
2 *308:8 *308:10 1.4
3 *308:7 *1330:Y 1.4
4 *308:6 *308:8 0.497155
5 *308:5 *308:7 0.745726
6 *308:5 *308:6 1.4
7 *308:4 *308:5 0.124288
8 *308:3 *308:4 1.4
9 *308:2 *308:3 0.745732
10 *308:1 *308:2 1.4
11 *1318:A *308:1 1.4
*END

*D_NET *309 0.000331269

*CONN
*I *1356:S0 I *C 16.095 28.855 *L 0.00372 *D MXI2XL
*I *1329:Y O *C 17.835 29.145 *L 0 *D NOR2XL

*CAP
1 *309:2 0.000142195
2 *309:3 0.000142195
3 *309:4 2.34394e-05
4 *309:5 2.34394e-05

*RES
1 *309:5 *1329:Y 1.4
2 *309:4 *309:5 0.124283
3 *309:3 *309:4 1.4
4 *309:2 *309:3 0.745732
5 *309:1 *309:2 1.4
6 *1356:S0 *309:1 1.4
*END

*D_NET *310 0.0217032

*CONN
*I *1280:B0 I *C 78.735 34.365 *L 0.00171 *D AO22XL
*I *1285:B0 I *C 92.655 34.365 *L 0.00171 *D AO22XL
*I *1286:B0 I *C 96.135 46.835 *L 0.00171 *D AO22XL
*I *1284:B0 I *C 93.525 62.495 *L 0.00171 *D AO22XL
*I *1287:B0 I *C 93.525 76.125 *L 0.00171 *D AO22XL
*I *1324:Y O *C 40.0825 57.855 *L 0 *D CLKINVX1
*I *1282:B0 I *C 39.875 70.905 *L 0.00171 *D AO22XL

*CAP
1 *310:2 0.00114325
2 *310:3 0.00114325
3 *310:4 0.000913015
4 *310:5 0.000913015
5 *310:7 0.000142906
6 *310:8 0.000142906
7 *310:9 2.22686e-05
8 *310:10 0.00128548
9 *310:11 0.00126321
10 *310:12 0.000142906
11 *310:13 4.58988e-05
12 *310:14 0.000142906
13 *310:15 6.88482e-05
14 *310:16 2.22686e-05
15 *310:17 0.00109752
16 *310:18 0.00486676
17 *310:19 2.22686e-05
18 *310:20 0.00109752
19 *310:22 0.00487208
20 *310:24 2.29494e-05
21 *310:26 0.000402997
22 *310:27 2.82705e-05
23 *310:28 2.29494e-05
24 *310:29 0.000402997
25 *310:30 0.000730433
26 *310:33 0.000730433
27 *310:35 6.94823e-06
28 *310:37 6.94823e-06

*RES
1 *310:38 *1282:B0 1.4
2 *310:37 *1324:Y 1.4
3 *310:36 *310:38 1.4
4 *310:35 *310:37 0.0342866
5 *310:33 *310:36 1.4
6 *310:32 *310:35 1.4
7 *310:31 *1287:B0 1.4
8 *310:30 *310:33 3.60437
9 *310:29 *310:32 1.4
10 *310:28 *310:31 1.4
11 *310:27 *310:30 1.4
12 *310:26 *310:29 1.98862
13 *310:24 *310:28 0.124289
14 *310:22 *310:27 0.124283
15 *310:22 *310:26 1.4
16 *310:21 *1284:B0 1.4
17 *310:20 *310:24 1.4
18 *310:19 *1286:B0 1.4
19 *310:18 *310:22 22.8689
20 *310:18 *310:21 1.4
21 *310:17 *310:20 5.84137
22 *310:16 *310:19 0.124288
23 *310:15 *310:18 0.124289
24 *310:15 *310:17 1.4
25 *310:14 *310:16 1.4
26 *310:13 *310:15 0.248578
27 *310:12 *310:14 0.745696
28 *310:11 *310:13 1.4
29 *310:10 *310:12 1.4
30 *310:10 *310:11 6.83571
31 *310:9 *310:10 0.124288
32 *310:8 *310:9 1.4
33 *310:7 *310:8 0.745696
34 *310:5 *310:7 1.4
35 *310:4 *1285:B0 1.4
36 *310:4 *310:5 5.0958
37 *310:3 *310:4 1.4
38 *310:2 *310:3 5.96557
39 *310:1 *310:2 1.4
40 *1280:B0 *310:1 1.4
*END

*D_NET *311 0.0166205

*CONN
*I *1267:A1 I *C 27.115 76.125 *L 0.00166 *D OAI21XL
*I *1270:A1 I *C 40.745 76.125 *L 0.00166 *D OAI21XL
*I *1269:A1 I *C 41.325 67.715 *L 0.00166 *D OAI21XL
*I *1324:A I *C 40.455 57.855 *L 0.00273 *D CLKINVX1
*I *1281:A1 I *C 41.325 41.615 *L 0.00166 *D OAI21XL
*I *1266:A1 I *C 27.405 57.275 *L 0.00166 *D OAI21XL
*I *1265:A1 I *C 42.485 31.175 *L 0.00166 *D OAI21XL
*I *1264:A1 I *C 33.205 31.175 *L 0.00166 *D OAI21XL
*I *1327:Y O *C 27.405 32.045 *L 0 *D NAND2XL

*CAP
1 *311:2 0.00132871
2 *311:3 0.00138525
3 *311:4 5.6541e-05
4 *311:6 0.000730433
5 *311:8 0.00156162
6 *311:10 0.000831182
7 *311:11 8.48115e-05
8 *311:12 0.00143568
9 *311:13 0.00135698
10 *311:14 0.00143568
11 *311:15 2.51873e-05
12 *311:16 0.00127217
13 *311:18 2.51873e-05
14 *311:19 7.5562e-05
15 *311:20 0.000906748
16 *311:22 7.5562e-05
17 *311:24 0.000906748
18 *311:26 0.000915471
19 *311:27 0.000114434
20 *311:28 0.00137321
21 *311:31 0.00057217
22 *311:34 7.55623e-05
23 *311:35 7.55623e-05

*RES
1 *311:35 *1327:Y 1.4
2 *311:34 *311:35 0.372863
3 *311:31 *311:34 1.4
4 *311:30 *1264:A1 1.4
5 *311:29 *1265:A1 1.4
6 *311:28 *311:31 2.48577
7 *311:28 *311:30 1.4
8 *311:27 *311:29 1.4
9 *311:26 *311:28 3.48008
10 *311:26 *311:27 0.497155
11 *311:24 *311:26 1.4
12 *311:22 *1266:A1 1.4
13 *311:20 *311:24 4.47436
14 *311:20 *1281:A1 1.4
15 *311:19 *311:22 0.372866
16 *311:18 *1324:A 1.4
17 *311:17 *311:20 1.4
18 *311:16 *311:19 1.4
19 *311:15 *311:18 0.124289
20 *311:14 *311:17 1.4
21 *311:13 *311:16 5.59273
22 *311:13 *311:15 1.4
23 *311:12 *311:14 7.08442
24 *311:11 *311:13 0.372849
25 *311:11 *311:12 1.4
26 *311:10 *311:11 1.4
27 *311:8 *311:10 4.10153
28 *311:8 *1269:A1 1.4
29 *311:6 *311:8 3.60437
30 *311:5 *1270:A1 1.4
31 *311:4 *311:6 1.4
32 *311:3 *311:5 1.4
33 *311:3 *311:4 0.248566
34 *311:2 *311:3 5.84129
35 *311:1 *311:2 1.4
36 *1267:A1 *311:1 1.4
*END

*D_NET *312 0.0150353

*CONN
*I *1272:A1 I *C 31.755 78.155 *L 0.00166 *D OAI21XL
*I *1277:A1 I *C 50.025 76.125 *L 0.00166 *D OAI21XL
*I *1275:A1 I *C 43.065 70.905 *L 0.00166 *D OAI21XL
*I *1323:Y O *C 38.2175 63.075 *L 0 *D CLKINVX1
*I *1268:A1 I *C 50.605 36.395 *L 0.00166 *D OAI21XL
*I *1263:A1 I *C 36.975 36.395 *L 0.00166 *D OAI21XL

*CAP
1 *312:2 0.000876385
2 *312:3 0.000876385
3 *312:4 0.000151124
4 *312:5 0.000151124
5 *312:6 0.000226164
6 *312:7 0.000904656
7 *312:8 0.000678492
8 *312:9 0.000478559
9 *312:10 2.51873e-05
10 *312:11 0.00128455
11 *312:12 2.51873e-05
12 *312:14 0.000805995
13 *312:17 0.000480598
14 *312:19 0.000480598
15 *312:20 0.00234243
16 *312:21 0.000133319
17 *312:22 0.00224168
18 *312:23 7.3825e-06
19 *312:24 0.00123016
20 *312:25 2.51874e-05
21 *312:27 0.00123016
22 *312:28 0.000114434
23 *312:29 2.51874e-05
24 *312:30 0.000114434
25 *312:31 2.51874e-05
26 *312:32 5.03749e-05
27 *312:34 5.03749e-05

*RES
1 *312:34 *1263:A1 1.4
2 *312:32 *312:34 0.248575
3 *312:31 *1268:A1 1.4
4 *312:30 *312:32 1.4
5 *312:29 *312:31 0.124288
6 *312:28 *312:30 0.497155
7 *312:27 *312:29 1.4
8 *312:25 *312:28 1.4
9 *312:24 *312:27 5.34442
10 *312:23 *1323:Y 1.4
11 *312:22 *312:25 0.124288
12 *312:22 *312:24 1.4
13 *312:21 *312:23 0.0364295
14 *312:20 *312:22 10.9374
15 *312:20 *312:21 0.621444
16 *312:19 *312:20 1.4
17 *312:17 *312:19 2.11281
18 *312:16 *1275:A1 1.4
19 *312:14 *312:17 1.4
20 *312:13 *312:16 1.4
21 *312:12 *1277:A1 1.4
22 *312:11 *312:14 3.97724
23 *312:11 *312:13 1.4
24 *312:10 *312:12 0.124289
25 *312:9 *312:11 2.36149
26 *312:8 *312:10 1.4
27 *312:7 *312:9 1.4
28 *312:7 *312:8 2.98279
29 *312:6 *312:7 0.994263
30 *312:5 *312:6 1.4
31 *312:4 *312:5 0.745732
32 *312:3 *312:4 1.4
33 *312:2 *312:3 3.85277
34 *312:1 *312:2 1.4
35 *1272:A1 *312:1 1.4
*END

*D_NET *313 0.0215895

*CONN
*I *1291:B0 I *C 72.935 72.935 *L 0.00171 *D AO22XL
*I *1299:B0 I *C 76.995 73.515 *L 0.00165 *D AO22X1
*I *1297:B0 I *C 77.285 62.495 *L 0.00171 *D AO22XL
*I *1323:A I *C 37.845 63.075 *L 0.00273 *D CLKINVX1
*I *1294:B0 I *C 76.415 41.615 *L 0.00171 *D AO22XL
*I *1283:B0 I *C 72.355 39.585 *L 0.00171 *D AO22XL
*I *1288:B0 I *C 28.275 62.495 *L 0.00171 *D AO22XL
*I *1326:Y O *C 29.725 36.395 *L 0 *D NOR2XL

*CAP
1 *313:1 4.81128e-05
2 *313:2 4.81128e-05
3 *313:3 0.000356162
4 *313:4 0.000383559
5 *313:5 2.73971e-05
6 *313:6 0.000793861
7 *313:8 0.000793861
8 *313:10 8.21913e-05
9 *313:11 5.47942e-05
10 *313:12 2.73971e-05
11 *313:13 0.000120282
12 *313:14 9.62255e-05
13 *313:15 0.000120282
14 *313:16 0.00187456
15 *313:18 0.00368705
16 *313:19 0.00177834
17 *313:20 0.00447862
18 *313:21 0.00038693
19 *313:22 2.51873e-05
20 *313:23 0.000791574
21 *313:24 2.40074e-05
22 *313:25 0.00038693
23 *313:26 2.51873e-05
24 *313:27 2.51873e-05
25 *313:28 2.40074e-05
26 *313:29 0.000144045
27 *313:31 0.00229205
28 *313:33 0.000144045
29 *313:34 0.000141352
30 *313:35 0.00226687
31 *313:37 0.000141352

*RES
1 *313:40 *1326:Y 1.4
2 *313:39 *1288:B0 1.4
3 *313:38 *313:40 1.4
4 *313:37 *313:39 1.4
5 *313:35 *313:38 1.4
6 *313:34 *313:37 0.621414
7 *313:33 *1283:B0 1.4
8 *313:31 *313:35 11.1859
9 *313:31 *313:34 1.4
10 *313:29 *313:33 0.745696
11 *313:28 *1294:B0 1.4
12 *313:27 *313:31 0.124289
13 *313:26 *1323:A 1.4
14 *313:25 *313:29 1.4
15 *313:24 *313:28 0.124283
16 *313:23 *313:27 1.4
17 *313:22 *313:26 0.124289
18 *313:21 *313:25 1.74004
19 *313:21 *313:24 1.4
20 *313:20 *313:23 3.47992
21 *313:20 *313:22 1.4
22 *313:19 *313:21 1.4
23 *313:18 *313:20 16.5301
24 *313:16 *313:19 9.19714
25 *313:16 *313:18 1.4
26 *313:15 *1297:B0 1.4
27 *313:14 *313:16 0.497155
28 *313:13 *313:15 0.621444
29 *313:12 *313:14 1.4
30 *313:11 *313:13 1.4
31 *313:10 *313:12 0.124289
32 *313:10 *313:11 0.248577
33 *313:8 *313:10 1.4
34 *313:7 *1299:B0 1.4
35 *313:6 *313:8 4.10153
36 *313:5 *313:7 1.4
37 *313:4 *313:6 1.4
38 *313:4 *313:5 0.124289
39 *313:3 *313:4 1.61575
40 *313:2 *313:3 1.4
41 *313:1 *313:2 0.248578
42 *1291:B0 *313:1 1.4
*END

*D_NET *314 0.00559199

*CONN
*I *1317:B I *C 42.485 28.855 *L 0.00167 *D NAND2XL
*I *1279:A1 I *C 39.295 31.465 *L 0.00278 *D OAI211X1
*I *1325:Y O *C 27.405 28.275 *L 0 *D NAND2XL
*I *1340:S0 I *C 18.705 26.245 *L 0.00372 *D MXI2XL

*CAP
1 *314:1 0.00010075
2 *314:2 0.00010075
3 *314:3 0.000343302
4 *314:4 0.000343302
5 *314:5 0.000201499
6 *314:6 0.000125937
7 *314:7 7.55623e-05
8 *314:8 2.86085e-05
9 *314:9 0.00114434
10 *314:10 2.86085e-05
11 *314:11 0.00114434
12 *314:13 7.55623e-05
13 *314:15 0.000151125
14 *314:17 7.55623e-05
15 *314:18 0.000187986
16 *314:19 0.000187986
17 *314:20 0.000115731
18 *314:21 0.000115731
19 *314:22 0.000500679
20 *314:23 0.000500679
21 *314:24 2.19732e-05
22 *314:25 2.19732e-05

*RES
1 *314:25 *1340:S0 1.4
2 *314:24 *314:25 0.124283
3 *314:23 *314:24 1.4
4 *314:22 *314:23 2.85864
5 *314:21 *314:22 1.4
6 *314:20 *314:21 0.621414
7 *314:19 *314:20 1.4
8 *314:18 *314:19 0.870021
9 *314:17 *314:18 1.4
10 *314:15 *314:17 0.372863
11 *314:15 *1325:Y 1.4
12 *314:13 *314:15 0.372863
13 *314:12 *1279:A1 1.4
14 *314:11 *314:13 1.4
15 *314:10 *314:12 1.4
16 *314:9 *314:11 4.97155
17 *314:8 *314:10 0.124289
18 *314:7 *314:9 1.4
19 *314:6 *314:8 1.4
20 *314:5 *314:7 0.372863
21 *314:5 *314:6 0.621439
22 *314:4 *314:5 1.4
23 *314:3 *314:4 1.49146
24 *314:2 *314:3 1.4
25 *314:1 *314:2 0.497151
26 *1317:B *314:1 1.4
*END

*D_NET *315 0.00071209

*CONN
*I *1262:C0 I *C 39.295 42.485 *L 0.00287 *D OAI211X1
*I *1320:Y O *C 39.585 38.715 *L 0 *D NAND2XL

*CAP
1 *315:1 0.000327437
2 *315:2 0.000327437
3 *315:3 2.86085e-05
4 *315:4 2.86085e-05

*RES
1 *315:5 *1320:Y 1.4
2 *315:4 *315:5 1.4
3 *315:3 *315:4 0.124289
4 *315:2 *315:3 1.4
5 *315:1 *315:2 1.61574
6 *1262:C0 *315:1 1.4
*END

*D_NET *316 0.000228868

*CONN
*I *1298:C0 I *C 29.435 42.485 *L 0.00287 *D OAI211X1
*I *1319:Y O *C 28.275 42.485 *L 0 *D NAND2XL

*CAP
1 *316:2 0.000114434
2 *316:3 0.000114434

*RES
1 *316:4 *1319:Y 1.4
2 *316:3 *316:4 1.4
3 *316:2 *316:3 0.497155
4 *316:1 *316:2 1.4
5 *1298:C0 *316:1 1.4
*END

*D_NET *317 0.0311232

*CONN
*I *1261:A0 I *C 101.645 70.615 *L 0.00158 *D AO22XL
*I *1296:A0 I *C 99.905 54.955 *L 0.00158 *D AO22XL
*I *1293:A0 I *C 99.615 57.565 *L 0.00158 *D AO22XL
*I *1295:A0 I *C 99.035 39.295 *L 0.00158 *D AO22XL
*I *1289:A0 I *C 82.505 39.295 *L 0.00158 *D AO22XL
*I *1311:A I *C 36.105 36.685 *L 0.00157 *D NAND2XL
*I *1304:A I *C 29.435 49.735 *L 0.00157 *D NAND2XL
*I *1322:Y O *C 28.565 38.425 *L 0 *D NAND2BX1
*I *1292:A0 I *C 36.395 62.785 *L 0.00158 *D AO22XL
*I *1316:A I *C 36.395 70.615 *L 0.00157 *D NAND2XL
*I *1314:A I *C 30.595 73.225 *L 0.00157 *D NAND2XL
*I *1315:A I *C 41.035 62.785 *L 0.00157 *D NAND2XL
*I *1290:A0 I *C 45.385 54.955 *L 0.00158 *D AO22XL

*CAP
1 *317:2 0.000137696
2 *317:3 0.000137696
3 *317:4 0.00105081
4 *317:5 0.00126098
5 *317:6 2.29494e-05
6 *317:7 0.00142296
7 *317:8 2.29494e-05
8 *317:10 0.00121279
9 *317:12 7.1453e-05
10 *317:14 0.00142906
11 *317:16 0.00583536
12 *317:19 0.00447775
13 *317:21 0.000251874
14 *317:22 2.51874e-05
15 *317:23 0.000226687
16 *317:24 0.00057217
17 *317:25 5.7217e-05
18 *317:26 0.00057217
19 *317:27 5.7217e-05
20 *317:28 0.00098231
21 *317:30 0.0019898
22 *317:31 0.00010075
23 *317:33 0.00110824
24 *317:34 2.86085e-05
25 *317:35 0.000114434
26 *317:36 0.000621951
27 *317:37 2.86085e-05
28 *317:38 0.000114434
29 *317:39 0.000650221
30 *317:42 2.82705e-05
31 *317:43 0.000730433
32 *317:46 2.51873e-05
33 *317:47 0.000730433
34 *317:48 7.5562e-05
35 *317:49 0.00056541
36 *317:50 5.03747e-05
37 *317:52 2.82705e-05
38 *317:53 0.000537139
39 *317:54 0.000452328
40 *317:55 2.51873e-05
41 *317:56 0.000201499
42 *317:57 0.000876385
43 *317:58 2.51873e-05
44 *317:59 0.000201499
45 *317:60 0.000424057
46 *317:61 5.03747e-05
47 *317:64 0.000730433
48 *317:65 5.03747e-05
49 *317:66 0.000730433

*RES
1 *317:66 *1290:A0 1.4
2 *317:65 *1315:A 1.4
3 *317:64 *317:66 3.60437
4 *317:61 *317:65 0.248578
5 *317:60 *317:64 1.4
6 *317:59 *1314:A 1.4
7 *317:58 *1316:A 1.4
8 *317:57 *317:61 1.4
9 *317:57 *317:60 1.86424
10 *317:56 *317:59 0.99431
11 *317:55 *317:58 0.124289
12 *317:54 *317:57 1.98853
13 *317:53 *317:56 1.4
14 *317:52 *317:55 1.4
15 *317:50 *317:54 1.4
16 *317:49 *317:53 2.36137
17 *317:49 *317:52 0.124283
18 *317:48 *1292:A0 1.4
19 *317:48 *317:50 0.248578
20 *317:47 *317:49 1.4
21 *317:46 *317:48 0.124289
22 *317:43 *317:47 3.60437
23 *317:42 *317:46 1.4
24 *317:41 *1322:Y 1.4
25 *317:40 *1304:A 1.4
26 *317:39 *317:43 1.4
27 *317:39 *317:42 0.124283
28 *317:38 *317:41 1.4
29 *317:37 *317:40 1.4
30 *317:36 *317:39 2.73422
31 *317:35 *317:38 0.497155
32 *317:34 *317:37 0.124289
33 *317:33 *317:36 1.4
34 *317:31 *317:35 1.4
35 *317:30 *317:34 1.4
36 *317:30 *317:33 5.4687
37 *317:29 *1311:A 1.4
38 *317:28 *317:31 0.497151
39 *317:28 *317:30 4.35007
40 *317:27 *317:29 1.4
41 *317:26 *317:28 1.4
42 *317:25 *317:27 0.248577
43 *317:24 *317:26 2.48577
44 *317:23 *317:25 1.4
45 *317:22 *317:24 1.4
46 *317:21 *317:23 1.11859
47 *317:21 *317:22 0.124288
48 *317:19 *317:21 1.4
49 *317:18 *1289:A0 1.4
50 *317:16 *317:19 20.1346
51 *317:16 *317:18 1.4
52 *317:15 *1295:A0 1.4
53 *317:14 *317:16 7.08411
54 *317:14 *317:15 1.4
55 *317:12 *317:14 0.372848
56 *317:11 *1293:A0 1.4
57 *317:10 *317:12 1.4
58 *317:8 *317:11 1.4
59 *317:7 *317:10 6.71151
60 *317:7 *1296:A0 1.4
61 *317:6 *317:8 0.124289
62 *317:5 *317:7 1.11856
63 *317:5 *317:6 1.4
64 *317:4 *317:5 5.59281
65 *317:3 *317:4 1.4
66 *317:2 *317:3 0.745732
67 *317:1 *317:2 1.4
68 *1261:A0 *317:1 1.4
*END

*D_NET *318 0.0292618

*CONN
*I *1288:A0 I *C 26.825 62.785 *L 0.00158 *D AO22XL
*I *1313:A I *C 34.075 78.445 *L 0.00157 *D NAND2XL
*I *1312:A I *C 44.225 78.445 *L 0.00157 *D NAND2XL
*I *1307:A I *C 52.345 75.835 *L 0.00157 *D NAND2XL
*I *1291:A0 I *C 74.385 73.225 *L 0.00158 *D AO22XL
*I *1299:A0 I *C 75.255 73.225 *L 0.00162 *D AO22X1
*I *1297:A0 I *C 75.835 62.785 *L 0.00158 *D AO22XL
*I *1294:A0 I *C 74.965 41.905 *L 0.00158 *D AO22XL
*I *1283:A0 I *C 73.805 39.295 *L 0.00158 *D AO22XL
*I *1300:A I *C 53.795 36.685 *L 0.00157 *D NAND2XL
*I *1301:A I *C 39.875 36.685 *L 0.00157 *D NAND2XL
*I *1321:Y O *C 27.405 33.495 *L 0 *D AO21X1

*CAP
1 *318:1 5.03747e-05
2 *318:2 5.03747e-05
3 *318:3 0.000706762
4 *318:4 0.000706762
5 *318:5 0.00130743
6 *318:6 0.00130743
7 *318:7 0.000888332
8 *318:9 0.00159847
9 *318:10 0.000710138
10 *318:12 0.000190658
11 *318:14 0.000214714
12 *318:15 0.001863
13 *318:16 2.40564e-05
14 *318:17 0.001863
15 *318:19 0.00026462
16 *318:20 0.00026462
17 *318:21 0.000219177
18 *318:22 0.000301368
19 *318:23 0.000136985
20 *318:24 2.40564e-05
21 *318:25 5.47942e-05
22 *318:26 2.40564e-05
23 *318:27 2.40564e-05
24 *318:28 0.000841973
25 *318:29 2.40564e-05
26 *318:31 0.00264432
27 *318:34 0.00180234
28 *318:35 8.29136e-05
29 *318:36 0.000193465
30 *318:37 7.20223e-05
31 *318:38 0.000193465
32 *318:39 7.20223e-05
33 *318:40 0.000144045
34 *318:41 8.29136e-05
35 *318:43 0.000144045
36 *318:44 0.000336104
37 *318:46 0.000336104
38 *318:47 0.0018241
39 *318:48 0.00319197
40 *318:49 2.40074e-05
41 *318:50 0.00136787
42 *318:51 2.40074e-05
43 *318:52 2.51874e-05
44 *318:54 0.000302249
45 *318:56 0.000277062
46 *318:57 0.00123016
47 *318:58 0.00123016

*RES
1 *318:59 *1321:Y 1.4
2 *318:58 *318:59 1.4
3 *318:57 *318:58 5.34442
4 *318:56 *318:57 1.4
5 *318:54 *318:56 1.36717
6 *318:54 *1301:A 1.4
7 *318:52 *318:54 0.124288
8 *318:51 *1300:A 1.4
9 *318:50 *318:52 1.4
10 *318:49 *318:51 0.124283
11 *318:48 *318:50 5.96586
12 *318:48 *318:49 1.4
13 *318:47 *318:48 8.20302
14 *318:46 *318:47 1.4
15 *318:44 *318:46 1.73996
16 *318:43 *1283:A0 1.4
17 *318:41 *318:44 1.4
18 *318:40 *318:43 0.745696
19 *318:39 *1294:A0 1.4
20 *318:38 *318:41 0.372865
21 *318:38 *318:40 1.4
22 *318:37 *318:39 0.372848
23 *318:36 *318:38 0.497153
24 *318:36 *318:37 1.4
25 *318:35 *318:36 0.372865
26 *318:34 *318:35 1.4
27 *318:31 *318:34 9.32142
28 *318:31 *1297:A0 1.4
29 *318:29 *1299:A0 1.4
30 *318:28 *318:31 4.35011
31 *318:27 *1291:A0 1.4
32 *318:26 *318:29 0.124289
33 *318:25 *318:28 1.4
34 *318:24 *318:27 0.124289
35 *318:23 *318:26 1.4
36 *318:23 *318:25 0.248577
37 *318:22 *318:24 1.4
38 *318:22 *318:23 0.372866
39 *318:21 *318:22 0.99431
40 *318:20 *318:21 1.4
41 *318:19 *318:20 1.36718
42 *318:17 *318:19 1.4
43 *318:16 *1307:A 1.4
44 *318:15 *318:17 8.45163
45 *318:14 *318:16 0.124289
46 *318:14 *318:15 1.4
47 *318:12 *318:14 0.99431
48 *318:11 *1312:A 1.4
49 *318:10 *318:12 1.4
50 *318:9 *318:11 1.4
51 *318:9 *318:10 3.47992
52 *318:7 *318:9 4.3499
53 *318:6 *1313:A 1.4
54 *318:6 *318:7 1.4
55 *318:5 *318:6 6.46301
56 *318:4 *318:5 1.4
57 *318:3 *318:4 3.10707
58 *318:2 *318:3 1.4
59 *318:1 *318:2 0.248578
60 *1288:A0 *318:1 1.4
*END

*D_NET *319 0.00137133

*CONN
*I *1279:C0 I *C 39.875 32.045 *L 0.00287 *D OAI211X1
*I *1317:Y O *C 42.485 28.275 *L 0 *D NAND2XL

*CAP
1 *319:1 5.03749e-05
2 *319:2 5.03749e-05
3 *319:3 0.000228868
4 *319:4 0.000228868
5 *319:5 0.000377812
6 *319:6 0.000377812
7 *319:7 2.86085e-05
8 *319:8 2.86085e-05

*RES
1 *319:9 *1317:Y 1.4
2 *319:8 *319:9 1.4
3 *319:7 *319:8 0.124289
4 *319:6 *319:7 1.4
5 *319:5 *319:6 1.86432
6 *319:4 *319:5 1.4
7 *319:3 *319:4 0.99431
8 *319:2 *319:3 1.4
9 *319:1 *319:2 0.248575
10 *1279:C0 *319:1 1.4
*END

*D_NET *320 0.0345408

*CONN
*I *1287:A0 I *C 92.075 75.835 *L 0.00158 *D AO22XL
*I *1284:A0 I *C 92.075 62.785 *L 0.00158 *D AO22XL
*I *1285:A0 I *C 94.105 34.075 *L 0.00158 *D AO22XL
*I *1286:A0 I *C 94.685 47.125 *L 0.00158 *D AO22XL
*I *1280:A0 I *C 77.285 34.075 *L 0.00158 *D AO22XL
*I *1302:A I *C 45.095 31.465 *L 0.00157 *D NAND2XL
*I *1308:A I *C 35.815 31.465 *L 0.00157 *D NAND2XL
*I *1303:A I *C 43.355 41.905 *L 0.00157 *D NAND2XL
*I *1318:Y O *C 25.085 38.715 *L 0 *D NAND2XL
*I *1305:A I *C 24.795 57.565 *L 0.00157 *D NAND2XL
*I *1310:A I *C 37.555 75.835 *L 0.00157 *D NAND2XL
*I *1306:A I *C 24.505 75.835 *L 0.00157 *D NAND2XL
*I *1282:A0 I *C 38.425 70.615 *L 0.00158 *D AO22XL
*I *1309:A I *C 43.355 68.005 *L 0.00157 *D NAND2XL

*CAP
1 *320:2 2.29494e-05
2 *320:3 2.29494e-05
3 *320:4 0.000980759
4 *320:5 0.000980759
5 *320:6 0.000160646
6 *320:7 0.000137696
7 *320:8 2.29494e-05
8 *320:9 0.00131208
9 *320:10 7.00542e-05
10 *320:11 0.00231417
11 *320:12 7.00542e-05
12 *320:13 4.76353e-05
13 *320:14 0.00100209
14 *320:16 4.76353e-05
15 *320:18 0.0013948
16 *320:20 0.00448638
17 *320:23 0.00323463
18 *320:25 0.000176312
19 *320:26 0.000143042
20 *320:27 0.000226687
21 *320:28 0.000680061
22 *320:29 0.000915471
23 *320:30 5.03749e-05
24 *320:31 0.000680061
25 *320:32 0.000915471
26 *320:34 2.86085e-05
27 *320:35 0.000579311
28 *320:36 5.03749e-05
29 *320:37 2.86085e-05
30 *320:38 0.000579311
31 *320:39 5.03749e-05
32 *320:41 0.00104133
33 *320:44 0.00104133
34 *320:45 7.03181e-05
35 *320:46 7.03181e-05
36 *320:48 2.36992e-05
37 *320:49 2.36992e-05
38 *320:50 0.00145672
39 *320:51 0.00294525
40 *320:52 0.00148853
41 *320:54 0.00123819
42 *320:56 0.00130091
43 *320:57 2.20927e-05
44 *320:59 8.48115e-05
45 *320:62 0.000453372
46 *320:65 0.000554121
47 *320:67 0.000100749
48 *320:68 0.000480598
49 *320:69 0.000480598
50 *320:70 0.000125937
51 *320:71 0.000125937

*RES
1 *320:71 *1309:A 1.4
2 *320:70 *320:71 0.621444
3 *320:69 *320:70 1.4
4 *320:68 *320:69 2.11281
5 *320:67 *320:68 1.4
6 *320:65 *320:67 0.497155
7 *320:65 *1282:A0 1.4
8 *320:62 *320:65 2.2372
9 *320:61 *1306:A 1.4
10 *320:60 *1310:A 1.4
11 *320:59 *320:62 1.4
12 *320:57 *320:61 1.4
13 *320:56 *320:60 1.4
14 *320:56 *320:59 0.372849
15 *320:55 *1305:A 1.4
16 *320:54 *320:57 0.124289
17 *320:54 *320:56 5.46847
18 *320:53 *320:55 1.4
19 *320:52 *320:54 1.4
20 *320:51 *320:53 1.4
21 *320:51 *320:52 7.82981
22 *320:50 *320:51 7.70553
23 *320:49 *320:50 1.4
24 *320:48 *320:49 0.124289
25 *320:46 *320:48 1.4
26 *320:45 *1318:Y 1.4
27 *320:45 *320:46 0.372848
28 *320:44 *320:45 1.4
29 *320:41 *320:44 4.59868
30 *320:40 *1303:A 1.4
31 *320:39 *1308:A 1.4
32 *320:38 *320:41 1.4
33 *320:37 *320:40 1.4
34 *320:36 *320:39 0.248575
35 *320:35 *320:38 2.85862
36 *320:34 *320:37 0.124289
37 *320:32 *320:36 1.4
38 *320:32 *320:35 1.4
39 *320:31 *320:34 1.4
40 *320:30 *1302:A 1.4
41 *320:29 *320:32 3.97724
42 *320:28 *320:31 3.35577
43 *320:27 *320:30 0.248575
44 *320:27 *320:29 1.4
45 *320:26 *320:28 1.4
46 *320:25 *320:27 0.870014
47 *320:23 *320:26 0.621444
48 *320:23 *320:25 1.4
49 *320:22 *1280:A0 1.4
50 *320:20 *320:23 13.796
51 *320:20 *320:22 1.4
52 *320:19 *1286:A0 1.4
53 *320:18 *320:20 7.20842
54 *320:16 *320:19 1.4
55 *320:14 *320:18 1.4
56 *320:14 *1285:A0 1.4
57 *320:13 *320:16 0.248565
58 *320:12 *1284:A0 1.4
59 *320:11 *320:14 5.59295
60 *320:11 *320:13 1.4
61 *320:10 *320:12 0.372854
62 *320:9 *320:11 7.08428
63 *320:8 *320:10 1.4
64 *320:7 *320:9 1.4
65 *320:6 *320:8 0.124289
66 *320:6 *320:7 0.745732
67 *320:5 *320:6 1.4
68 *320:4 *320:5 5.21995
69 *320:3 *320:4 1.4
70 *320:2 *320:3 0.124289
71 *320:1 *320:2 1.4
72 *1287:A0 *320:1 1.4
*END

*D_NET *321 0.000609618

*CONN
*I *1278:B0 I *C 34.365 70.615 *L 0.00169 *D OAI21XL
*I *1316:Y O *C 36.975 70.035 *L 0 *D NAND2XL

*CAP
1 *321:1 2.51873e-05
2 *321:2 2.51873e-05
3 *321:3 0.000254434
4 *321:4 0.000254434
5 *321:5 2.51873e-05
6 *321:6 2.51873e-05

*RES
1 *321:6 *1316:Y 1.4
2 *321:5 *321:6 0.124289
3 *321:4 *321:5 1.4
4 *321:3 *321:4 1.11855
5 *321:2 *321:3 1.4
6 *321:1 *321:2 0.124289
7 *1278:B0 *321:1 1.4
*END

*D_NET *322 0.000528412

*CONN
*I *1276:B0 I *C 40.455 62.785 *L 0.00169 *D OAI21XL
*I *1315:Y O *C 41.615 63.365 *L 0 *D NAND2XL

*CAP
1 *322:1 0.000100749
2 *322:2 0.000100749
3 *322:3 0.000113082
4 *322:4 0.000113082
5 *322:5 5.03747e-05
6 *322:6 5.03747e-05

*RES
1 *322:6 *1315:Y 1.4
2 *322:5 *322:6 0.248578
3 *322:4 *322:5 1.4
4 *322:3 *322:4 0.497131
5 *322:2 *322:3 1.4
6 *322:1 *322:2 0.497155
7 *1276:B0 *322:1 1.4
*END

*D_NET *323 0.00126449

*CONN
*I *1274:B0 I *C 32.045 70.615 *L 0.00169 *D OAI21XL
*I *1314:Y O *C 30.015 73.805 *L 0 *D NAND2XL

*CAP
1 *323:2 2.82705e-05
2 *323:3 2.82705e-05
3 *323:4 0.000327435
4 *323:5 0.000327435
5 *323:6 0.000226164
6 *323:7 0.000226164
7 *323:8 5.03747e-05
8 *323:9 5.03747e-05

*RES
1 *323:9 *1314:Y 1.4
2 *323:8 *323:9 0.248578
3 *323:7 *323:8 1.4
4 *323:6 *323:7 0.994263
5 *323:5 *323:6 1.4
6 *323:4 *323:5 1.61575
7 *323:3 *323:4 1.4
8 *323:2 *323:3 0.124283
9 *323:1 *323:2 1.4
10 *1274:B0 *323:1 1.4
*END

*D_NET *324 0.00044986

*CONN
*I *1272:B0 I *C 32.335 78.445 *L 0.00169 *D OAI21XL
*I *1313:Y O *C 33.495 79.025 *L 0 *D NAND2XL

*CAP
1 *324:1 8.22708e-05
2 *324:2 8.22708e-05
3 *324:3 0.000101524
4 *324:4 0.000101524
5 *324:5 4.11354e-05
6 *324:6 4.11354e-05

*RES
1 *324:6 *1313:Y 1.4
2 *324:5 *324:6 0.248565
3 *324:4 *324:5 1.4
4 *324:3 *324:4 0.497132
5 *324:2 *324:3 1.4
6 *324:1 *324:2 0.497131
7 *1272:B0 *324:1 1.4
*END

*D_NET *325 0.00143777

*CONN
*I *1275:B0 I *C 43.645 70.615 *L 0.00169 *D OAI21XL
*I *1312:Y O *C 43.645 79.025 *L 0 *D NAND2XL

*CAP
1 *325:1 0.000718884
2 *325:2 0.000718884

*RES
1 *325:2 *1312:Y 1.4
2 *325:1 *325:2 3.60436
3 *1275:B0 *325:1 1.4
*END

*D_NET *326 0.00178553

*CONN
*I *1271:B0 I *C 30.305 39.295 *L 0.00169 *D OAI21XL
*I *1311:Y O *C 35.525 37.265 *L 0 *D NAND2XL

*CAP
1 *326:1 0.000277062
2 *326:2 0.000277062
3 *326:3 0.000514953
4 *326:4 0.000514953
5 *326:5 0.00010075
6 *326:6 0.00010075

*RES
1 *326:6 *1311:Y 1.4
2 *326:5 *326:6 0.497151
3 *326:4 *326:5 1.4
4 *326:3 *326:4 2.2372
5 *326:2 *326:3 1.4
6 *326:1 *326:2 1.36717
7 *1271:B0 *326:1 1.4
*END

*D_NET *327 0.000496536

*CONN
*I *1270:B0 I *C 40.165 75.835 *L 0.00169 *D OAI21XL
*I *1310:Y O *C 38.135 75.255 *L 0 *D NAND2XL

*CAP
1 *327:2 0.000197893
2 *327:3 0.000197893
3 *327:4 5.03747e-05
4 *327:5 5.03747e-05

*RES
1 *327:5 *1310:Y 1.4
2 *327:4 *327:5 0.248578
3 *327:3 *327:4 1.4
4 *327:2 *327:3 0.86998
5 *327:1 *327:2 1.4
6 *1270:B0 *327:1 1.4
*END

*D_NET *328 0.0007227

*CONN
*I *1269:B0 I *C 40.745 68.005 *L 0.00169 *D OAI21XL
*I *1309:Y O *C 43.935 68.585 *L 0 *D NAND2XL

*CAP
1 *328:2 0.000310975
2 *328:3 0.000310975
3 *328:4 5.03747e-05
4 *328:5 5.03747e-05

*RES
1 *328:5 *1309:Y 1.4
2 *328:4 *328:5 0.248578
3 *328:3 *328:4 1.4
4 *328:2 *328:3 1.36711
5 *328:1 *328:2 1.4
6 *1269:B0 *328:1 1.4
*END

*D_NET *329 0.000716452

*CONN
*I *1264:B0 I *C 33.785 31.465 *L 0.00169 *D OAI21XL
*I *1308:Y O *C 36.395 32.045 *L 0 *D NAND2XL

*CAP
1 *329:1 7.55623e-05
2 *329:2 7.55623e-05
3 *329:3 0.000257476
4 *329:4 0.000257476
5 *329:5 2.51874e-05
6 *329:6 2.51874e-05

*RES
1 *329:6 *1308:Y 1.4
2 *329:5 *329:6 0.124288
3 *329:4 *329:5 1.4
4 *329:3 *329:4 1.1186
5 *329:2 *329:3 1.4
6 *329:1 *329:2 0.372863
7 *1264:B0 *329:1 1.4
*END

*D_NET *330 0.000326913

*CONN
*I *1277:B0 I *C 50.605 75.835 *L 0.00169 *D OAI21XL
*I *1307:Y O *C 51.765 75.255 *L 0 *D NAND2XL

*CAP
1 *330:1 5.03747e-05
2 *330:2 5.03747e-05
3 *330:3 0.000113082
4 *330:4 0.000113082

*RES
1 *330:5 *1307:Y 1.4
2 *330:4 *330:5 1.4
3 *330:3 *330:4 0.497131
4 *330:2 *330:3 1.4
5 *330:1 *330:2 0.248578
6 *1277:B0 *330:1 1.4
*END

*D_NET *331 0.000513831

*CONN
*I *1267:B0 I *C 26.535 75.835 *L 0.00169 *D OAI21XL
*I *1306:Y O *C 23.925 75.255 *L 0 *D NAND2XL

*CAP
1 *331:1 2.51873e-05
2 *331:2 2.51873e-05
3 *331:3 0.000208101
4 *331:4 0.000208101
5 *331:5 2.36274e-05
6 *331:6 2.36274e-05

*RES
1 *331:6 *1306:Y 1.4
2 *331:5 *331:6 0.124283
3 *331:4 *331:5 1.4
4 *331:3 *331:4 1.11859
5 *331:2 *331:3 1.4
6 *331:1 *331:2 0.124289
7 *1267:B0 *331:1 1.4
*END

*D_NET *332 0.000346325

*CONN
*I *1266:B0 I *C 26.825 57.565 *L 0.00169 *D OAI21XL
*I *1305:Y O *C 25.375 58.145 *L 0 *D NAND2XL

*CAP
1 *332:2 0.000125908
2 *332:3 0.000125908
3 *332:4 4.72548e-05
4 *332:5 4.72548e-05

*RES
1 *332:5 *1305:Y 1.4
2 *332:4 *332:5 0.248565
3 *332:3 *332:4 1.4
4 *332:2 *332:3 0.621429
5 *332:1 *332:2 1.4
6 *1266:B0 *332:1 1.4
*END

*D_NET *333 0.000645551

*CONN
*I *1273:B0 I *C 31.755 49.735 *L 0.00169 *D OAI21XL
*I *1304:Y O *C 30.015 49.155 *L 0 *D NAND2XL

*CAP
1 *333:1 5.03749e-05
2 *333:2 5.03749e-05
3 *333:3 0.000171651
4 *333:4 0.000171651
5 *333:5 0.00010075
6 *333:6 0.00010075

*RES
1 *333:6 *1304:Y 1.4
2 *333:5 *333:6 0.497151
3 *333:4 *333:5 1.4
4 *333:3 *333:4 0.745732
5 *333:2 *333:3 1.4
6 *333:1 *333:2 0.248575
7 *1273:B0 *333:1 1.4
*END

*D_NET *334 0.000272401

*CONN
*I *1281:B0 I *C 41.905 41.905 *L 0.00169 *D OAI21XL
*I *1303:Y O *C 42.775 42.485 *L 0 *D NAND2XL

*CAP
1 *334:2 8.58254e-05
2 *334:3 8.58254e-05
3 *334:4 5.03749e-05
4 *334:5 5.03749e-05

*RES
1 *334:5 *1303:Y 1.4
2 *334:4 *334:5 0.248575
3 *334:3 *334:4 1.4
4 *334:2 *334:3 0.372866
5 *334:1 *334:2 1.4
6 *1281:B0 *334:1 1.4
*END

*D_NET *335 0.000716452

*CONN
*I *1265:B0 I *C 43.065 31.465 *L 0.00169 *D OAI21XL
*I *1302:Y O *C 45.675 32.045 *L 0 *D NAND2XL

*CAP
1 *335:1 7.55623e-05
2 *335:2 7.55623e-05
3 *335:3 0.000257476
4 *335:4 0.000257476
5 *335:5 2.51874e-05
6 *335:6 2.51874e-05

*RES
1 *335:6 *1302:Y 1.4
2 *335:5 *335:6 0.124288
3 *335:4 *335:5 1.4
4 *335:3 *335:4 1.1186
5 *335:2 *335:3 1.4
6 *335:1 *335:2 0.372863
7 *1265:B0 *335:1 1.4
*END

*D_NET *336 0.000544801

*CONN
*I *1263:B0 I *C 37.555 36.685 *L 0.00169 *D OAI21XL
*I *1301:Y O *C 39.295 37.265 *L 0 *D NAND2XL

*CAP
1 *336:1 7.55623e-05
2 *336:2 7.55623e-05
3 *336:3 0.000171651
4 *336:4 0.000171651
5 *336:5 2.51874e-05
6 *336:6 2.51874e-05

*RES
1 *336:6 *1301:Y 1.4
2 *336:5 *336:6 0.124288
3 *336:4 *336:5 1.4
4 *336:3 *336:4 0.745732
5 *336:2 *336:3 1.4
6 *336:1 *336:2 0.372863
7 *1263:B0 *336:1 1.4
*END

*D_NET *337 0.000489754

*CONN
*I *1268:B0 I *C 51.185 36.685 *L 0.00169 *D OAI21XL
*I *1300:Y O *C 53.215 37.265 *L 0 *D NAND2XL

*CAP
1 *337:2 0.000196862
2 *337:3 0.000196862
3 *337:4 4.80149e-05
4 *337:5 4.80149e-05

*RES
1 *337:5 *1300:Y 1.4
2 *337:4 *337:5 0.248565
3 *337:3 *337:4 1.4
4 *337:2 *337:3 0.870019
5 *337:1 *337:2 1.4
6 *1268:B0 *337:1 1.4
*END

*D_NET *338 0.000542603

*CONN
*I *1232:D I *C 77.285 75.835 *L 0.00183 *D SDFFQX1
*I *1299:Y O *C 77.865 73.225 *L 0 *D AO22X1

*CAP
1 *338:2 2.73971e-05
2 *338:3 2.73971e-05
3 *338:4 0.000216507
4 *338:5 0.000216507
5 *338:6 2.73971e-05
6 *338:7 2.73971e-05

*RES
1 *338:8 *1299:Y 1.4
2 *338:7 *338:8 1.4
3 *338:6 *338:7 0.124289
4 *338:5 *338:6 1.4
5 *338:4 *338:5 1.1186
6 *338:3 *338:4 1.4
7 *338:2 *338:3 0.124289
8 *338:1 *338:2 1.4
9 *1232:D *338:1 1.4
*END

*D_NET *339 0.000782991

*CONN
*I *1224:D I *C 27.985 44.515 *L 0.00183 *D SDFFQX1
*I *1298:Y O *C 29.145 41.325 *L 0 *D OAI211X1

*CAP
1 *339:2 5.7217e-05
2 *339:3 5.7217e-05
3 *339:4 0.000277062
4 *339:5 0.000277062
5 *339:6 5.7217e-05
6 *339:7 5.7217e-05

*RES
1 *339:8 *1298:Y 1.4
2 *339:7 *339:8 1.4
3 *339:6 *339:7 0.248577
4 *339:5 *339:6 1.4
5 *339:4 *339:5 1.36717
6 *339:3 *339:4 1.4
7 *339:2 *339:3 0.248577
8 *339:1 *339:2 1.4
9 *1224:D *339:1 1.4
*END

*D_NET *340 0.000748417

*CONN
*I *1231:D I *C 76.415 60.175 *L 0.00183 *D SDFFQX1
*I *1297:Y O *C 77.575 63.365 *L 0 *D AO22XL

*CAP
1 *340:2 2.73971e-05
2 *340:3 2.73971e-05
3 *340:4 0.000240564
4 *340:5 0.000240564
5 *340:6 8.21913e-05
6 *340:7 8.21913e-05
7 *340:8 2.40564e-05
8 *340:9 2.40564e-05

*RES
1 *340:9 *1297:Y 1.4
2 *340:8 *340:9 0.124289
3 *340:7 *340:8 1.4
4 *340:6 *340:7 0.372866
5 *340:5 *340:6 1.4
6 *340:4 *340:5 1.24289
7 *340:3 *340:4 1.4
8 *340:2 *340:3 0.124289
9 *340:1 *340:2 1.4
10 *1231:D *340:1 1.4
*END

*D_NET *341 0.000827787

*CONN
*I *1259:D I *C 97.005 54.955 *L 0.00183 *D SDFFQX1
*I *1296:Y O *C 101.645 54.375 *L 0 *D AO22XL

*CAP
1 *341:2 0.000367191
2 *341:3 0.000367191
3 *341:4 4.67028e-05
4 *341:5 4.67028e-05

*RES
1 *341:5 *1296:Y 1.4
2 *341:4 *341:5 0.248569
3 *341:3 *341:4 1.4
4 *341:2 *341:3 1.98862
5 *341:1 *341:2 1.4
6 *1259:D *341:1 1.4
*END

*D_NET *342 0.000906236

*CONN
*I *1257:D I *C 99.905 36.685 *L 0.00183 *D SDFFQX1
*I *1295:Y O *C 100.775 38.715 *L 0 *D AO22XL

*CAP
1 *342:2 2.38177e-05
2 *342:3 2.38177e-05
3 *342:4 0.000244955
4 *342:5 0.000244955
5 *342:6 9.52707e-05
6 *342:7 9.52707e-05
7 *342:8 8.90746e-05
8 *342:9 8.90746e-05

*RES
1 *342:9 *1295:Y 1.4
2 *342:8 *342:9 0.497151
3 *342:7 *342:8 1.4
4 *342:6 *342:7 0.497131
5 *342:5 *342:6 1.4
6 *342:4 *342:5 1.36717
7 *342:3 *342:4 1.4
8 *342:2 *342:3 0.124283
9 *342:1 *342:2 1.4
10 *1257:D *342:1 1.4
*END

*D_NET *343 0.000638715

*CONN
*I *1229:D I *C 76.705 39.295 *L 0.00183 *D SDFFQX1
*I *1294:Y O *C 76.705 42.485 *L 0 *D AO22XL

*CAP
1 *343:2 2.76379e-05
2 *343:3 2.76379e-05
3 *343:4 0.000264082
4 *343:5 0.000264082
5 *343:6 2.76379e-05
6 *343:7 2.76379e-05

*RES
1 *343:8 *1294:Y 1.4
2 *343:7 *343:8 1.4
3 *343:6 *343:7 0.124288
4 *343:5 *343:6 1.4
5 *343:4 *343:5 1.36711
6 *343:3 *343:4 1.4
7 *343:2 *343:3 0.124288
8 *343:1 *343:2 1.4
9 *1229:D *343:1 1.4
*END

*D_NET *344 0.000648211

*CONN
*I *1255:D I *C 99.905 60.175 *L 0.00183 *D SDFFQX1
*I *1293:Y O *C 101.355 58.145 *L 0 *D AO22XL

*CAP
1 *344:2 2.29494e-05
2 *344:3 2.29494e-05
3 *344:4 0.00016346
4 *344:5 0.00016346
5 *344:6 0.000137696
6 *344:7 0.000137696

*RES
1 *344:8 *1293:Y 1.4
2 *344:7 *344:8 1.4
3 *344:6 *344:7 0.745732
4 *344:5 *344:6 1.4
5 *344:4 *344:5 0.869992
6 *344:3 *344:4 1.4
7 *344:2 *344:3 0.124289
8 *344:1 *344:2 1.4
9 *1255:D *344:1 1.4
*END

*D_NET *345 0.00120795

*CONN
*I *1253:D I *C 32.335 60.175 *L 0.00183 *D SDFFQX1
*I *1292:Y O *C 34.655 63.365 *L 0 *D AO22XL

*CAP
1 *345:1 0.000327435
2 *345:2 0.000327435
3 *345:3 0.000226164
4 *345:4 0.000226164
5 *345:5 5.03747e-05
6 *345:6 5.03747e-05

*RES
1 *345:6 *1292:Y 1.4
2 *345:5 *345:6 0.248578
3 *345:4 *345:5 1.4
4 *345:3 *345:4 0.994263
5 *345:2 *345:3 1.4
6 *345:1 *345:2 1.61575
7 *1253:D *345:1 1.4
*END

*D_NET *346 0.000858006

*CONN
*I *1227:D I *C 70.905 70.615 *L 0.00183 *D SDFFQX1
*I *1291:Y O *C 72.645 73.805 *L 0 *D AO22XL

*CAP
1 *346:1 0.000168395
2 *346:2 0.000168395
3 *346:3 0.000164383
4 *346:4 0.000164383
5 *346:5 9.62255e-05
6 *346:6 9.62255e-05

*RES
1 *346:6 *1291:Y 1.4
2 *346:5 *346:6 0.497155
3 *346:4 *346:5 1.4
4 *346:3 *346:4 0.745732
5 *346:2 *346:3 1.4
6 *346:1 *346:2 0.870021
7 *1227:D *346:1 1.4
*END

*D_NET *347 0.000667203

*CONN
*I *1251:D I *C 43.065 57.565 *L 0.00183 *D SDFFQX1
*I *1290:Y O *C 43.645 54.375 *L 0 *D AO22XL

*CAP
1 *347:2 5.6541e-05
2 *347:3 5.6541e-05
3 *347:4 0.000277061
4 *347:5 0.000277061

*RES
1 *347:5 *1290:Y 1.4
2 *347:4 *347:5 1.36718
3 *347:3 *347:4 1.4
4 *347:2 *347:3 0.248566
5 *347:1 *347:2 1.4
6 *1251:D *347:1 1.4
*END

*D_NET *348 0.00104604

*CONN
*I *1249:D I *C 86.275 34.075 *L 0.00183 *D SDFFQX1
*I *1289:Y O *C 84.245 38.715 *L 0 *D AO22XL

*CAP
1 *348:1 0.00033403
2 *348:2 0.00033403
3 *348:3 0.000166724
4 *348:4 0.000166724
5 *348:5 2.22686e-05
6 *348:6 2.22686e-05

*RES
1 *348:6 *1289:Y 1.4
2 *348:5 *348:6 0.124288
3 *348:4 *348:5 1.4
4 *348:3 *348:4 0.869979
5 *348:2 *348:3 1.4
6 *348:1 *348:2 1.86432
7 *1249:D *348:1 1.4
*END

*D_NET *349 0.000981784

*CONN
*I *1225:D I *C 27.405 65.395 *L 0.00183 *D SDFFQX1
*I *1288:Y O *C 28.565 63.365 *L 0 *D AO22XL

*CAP
1 *349:1 0.000277061
2 *349:2 0.000277061
3 *349:3 0.000113082
4 *349:4 0.000113082
5 *349:5 0.000100749
6 *349:6 0.000100749

*RES
1 *349:6 *1288:Y 1.4
2 *349:5 *349:6 0.497155
3 *349:4 *349:5 1.4
4 *349:3 *349:4 0.497131
5 *349:2 *349:3 1.4
6 *349:1 *349:2 1.36718
7 *1225:D *349:1 1.4
*END

*D_NET *350 0.00105728

*CONN
*I *1246:D I *C 99.905 75.835 *L 0.00183 *D SDFFQX1
*I *1287:Y O *C 93.815 75.255 *L 0 *D AO22XL

*CAP
1 *350:1 4.67028e-05
2 *350:2 4.67028e-05
3 *350:3 0.000481938
4 *350:4 0.000481938

*RES
1 *350:5 *1287:Y 1.4
2 *350:4 *350:5 1.4
3 *350:3 *350:4 2.61006
4 *350:2 *350:3 1.4
5 *350:1 *350:2 0.248569
6 *1246:D *350:1 1.4
*END

*D_NET *351 0.00106153

*CONN
*I *1245:D I *C 99.905 44.515 *L 0.00183 *D SDFFQX1
*I *1286:Y O *C 96.425 47.705 *L 0 *D AO22XL

*CAP
1 *351:2 2.38177e-05
2 *351:3 2.38177e-05
3 *351:4 0.000244955
4 *351:5 0.000244955
5 *351:6 0.000261994
6 *351:7 0.000261994

*RES
1 *351:8 *1286:Y 1.4
2 *351:7 *351:8 1.4
3 *351:6 *351:7 1.36711
4 *351:5 *351:6 1.4
5 *351:4 *351:5 1.36717
6 *351:3 *351:4 1.4
7 *351:2 *351:3 0.124283
8 *351:1 *351:2 1.4
9 *1245:D *351:1 1.4
*END

*D_NET *352 0.00083575

*CONN
*I *1243:D I *C 89.175 31.465 *L 0.00183 *D SDFFQX1
*I *1285:Y O *C 92.365 33.495 *L 0 *D AO22XL

*CAP
1 *352:1 2.22686e-05
2 *352:2 2.22686e-05
3 *352:3 0.000238177
4 *352:4 0.000238177
5 *352:5 0.000133612
6 *352:6 0.000133612
7 *352:7 2.38177e-05
8 *352:8 2.38177e-05

*RES
1 *352:9 *1285:Y 1.4
2 *352:8 *352:9 1.4
3 *352:7 *352:8 0.124283
4 *352:6 *352:7 1.4
5 *352:5 *352:6 0.745727
6 *352:4 *352:5 1.4
7 *352:3 *352:4 1.24283
8 *352:2 *352:3 1.4
9 *352:1 *352:2 0.124288
10 *1243:D *352:1 1.4
*END

*D_NET *353 0.000598293

*CONN
*I *1241:D I *C 97.005 62.785 *L 0.00183 *D SDFFQX1
*I *1284:Y O *C 93.815 63.365 *L 0 *D AO22XL

*CAP
1 *353:1 4.67028e-05
2 *353:2 4.67028e-05
3 *353:3 0.000252444
4 *353:4 0.000252444

*RES
1 *353:5 *1284:Y 1.4
2 *353:4 *353:5 1.4
3 *353:3 *353:4 1.36718
4 *353:2 *353:3 1.4
5 *353:1 *353:2 0.248569
6 *1241:D *353:1 1.4
*END

*D_NET *354 0.000823514

*CONN
*I *1221:D I *C 71.775 34.075 *L 0.00183 *D SDFFQX1
*I *1283:Y O *C 72.065 38.715 *L 0 *D AO22XL

*CAP
1 *354:1 0.000384119
2 *354:2 0.000384119
3 *354:3 2.76379e-05
4 *354:4 2.76379e-05

*RES
1 *354:5 *1283:Y 1.4
2 *354:4 *354:5 1.4
3 *354:3 *354:4 0.124288
4 *354:2 *354:3 1.4
5 *354:1 *354:2 1.98852
6 *1221:D *354:1 1.4
*END

*D_NET *355 0.00125728

*CONN
*I *1239:D I *C 36.105 68.005 *L 0.00183 *D SDFFQX1
*I *1282:Y O *C 40.165 70.035 *L 0 *D AO22XL

*CAP
1 *355:1 7.5562e-05
2 *355:2 7.5562e-05
3 *355:3 0.000424057
4 *355:4 0.000424057
5 *355:5 0.000100749
6 *355:6 0.000100749
7 *355:7 2.82705e-05
8 *355:8 2.82705e-05

*RES
1 *355:9 *1282:Y 1.4
2 *355:8 *355:9 1.4
3 *355:7 *355:8 0.124283
4 *355:6 *355:7 1.4
5 *355:5 *355:6 0.497155
6 *355:4 *355:5 1.4
7 *355:3 *355:4 1.86424
8 *355:2 *355:3 1.4
9 *355:1 *355:2 0.372866
10 *1239:D *355:1 1.4
*END

*D_NET *356 0.000695926

*CONN
*I *1237:D I *C 43.935 44.515 *L 0.00183 *D SDFFQX1
*I *1281:Y O *C 42.195 42.485 *L 0 *D OAI21XL

*CAP
1 *356:1 0.000125937
2 *356:2 0.000125937
3 *356:3 0.000171651
4 *356:4 0.000171651
5 *356:5 5.03749e-05
6 *356:6 5.03749e-05

*RES
1 *356:6 *1281:Y 1.4
2 *356:5 *356:6 0.248575
3 *356:4 *356:5 1.4
4 *356:3 *356:4 0.745732
5 *356:2 *356:3 1.4
6 *356:1 *356:2 0.621439
7 *1237:D *356:1 1.4
*END

*D_NET *357 0.000407032

*CONN
*I *1235:D I *C 78.445 31.465 *L 0.00183 *D SDFFQX1
*I *1280:Y O *C 79.025 33.495 *L 0 *D AO22XL

*CAP
1 *357:2 2.38177e-05
2 *357:3 2.38177e-05
3 *357:4 0.000155881
4 *357:5 0.000155881
5 *357:6 2.38177e-05
6 *357:7 2.38177e-05

*RES
1 *357:8 *1280:Y 1.4
2 *357:7 *357:8 1.4
3 *357:6 *357:7 0.124283
4 *357:5 *357:6 1.4
5 *357:4 *357:5 0.870015
6 *357:3 *357:4 1.4
7 *357:2 *357:3 0.124283
8 *357:1 *357:2 1.4
9 *1235:D *357:1 1.4
*END

*D_NET *358 0.00230048

*CONN
*I *1250:D I *C 47.995 34.075 *L 0.00183 *D SDFFQX1
*I *1279:Y O *C 40.165 30.885 *L 0 *D OAI211X1

*CAP
1 *358:1 5.03749e-05
2 *358:2 5.03749e-05
3 *358:3 0.000772429
4 *358:4 0.000772429
5 *358:5 0.000327437
6 *358:6 0.000327437

*RES
1 *358:6 *1279:Y 1.4
2 *358:5 *358:6 1.61574
3 *358:4 *358:5 1.4
4 *358:3 *358:4 3.3558
5 *358:2 *358:3 1.4
6 *358:1 *358:2 0.248575
7 *1250:D *358:1 1.4
*END

*D_NET *359 0.000667203

*CONN
*I *1258:D I *C 33.495 73.225 *L 0.00183 *D SDFFQX1
*I *1278:Y O *C 34.075 70.035 *L 0 *D OAI21XL

*CAP
1 *359:1 0.000277061
2 *359:2 0.000277061
3 *359:3 5.6541e-05
4 *359:4 5.6541e-05

*RES
1 *359:5 *1278:Y 1.4
2 *359:4 *359:5 1.4
3 *359:3 *359:4 0.248566
4 *359:2 *359:3 1.4
5 *359:1 *359:2 1.36718
6 *1258:D *359:1 1.4
*END

*D_NET *360 0.000713346

*CONN
*I *1230:D I *C 50.025 78.445 *L 0.00183 *D SDFFQX1
*I *1277:Y O *C 50.895 75.255 *L 0 *D OAI21XL

*CAP
1 *360:2 2.53809e-05
2 *360:3 2.53809e-05
3 *360:4 0.000274751
4 *360:5 0.000274751
5 *360:6 5.6541e-05
6 *360:7 5.6541e-05

*RES
1 *360:8 *1277:Y 1.4
2 *360:7 *360:8 1.4
3 *360:6 *360:7 0.248566
4 *360:5 *360:6 1.4
5 *360:4 *360:5 1.36717
6 *360:3 *360:4 1.4
7 *360:2 *360:3 0.124283
8 *360:1 *360:2 1.4
9 *1230:D *360:1 1.4
*END

*D_NET *361 0.000667203

*CONN
*I *1256:D I *C 40.165 60.175 *L 0.00183 *D SDFFQX1
*I *1276:Y O *C 40.745 63.365 *L 0 *D OAI21XL

*CAP
1 *361:1 2.51873e-05
2 *361:2 2.51873e-05
3 *361:3 5.6541e-05
4 *361:4 5.6541e-05
5 *361:5 0.000251873
6 *361:6 0.000251873

*RES
1 *361:6 *1276:Y 1.4
2 *361:5 *361:6 1.24289
3 *361:4 *361:5 1.4
4 *361:3 *361:4 0.248566
5 *361:2 *361:3 1.4
6 *361:1 *361:2 0.124289
7 *1256:D *361:1 1.4
*END

*D_NET *362 0.0015729

*CONN
*I *1228:D I *C 46.835 75.835 *L 0.00183 *D SDFFQX1
*I *1275:Y O *C 43.935 70.035 *L 0 *D OAI21XL

*CAP
1 *362:2 2.82705e-05
2 *362:3 2.82705e-05
3 *362:4 0.000503747
4 *362:5 0.000503747
5 *362:6 0.000254434
6 *362:7 0.000254434

*RES
1 *362:8 *1275:Y 1.4
2 *362:7 *362:8 1.4
3 *362:6 *362:7 1.11855
4 *362:5 *362:6 1.4
5 *362:4 *362:5 2.48577
6 *362:3 *362:4 1.4
7 *362:2 *362:3 0.124283
8 *362:1 *362:2 1.4
9 *1228:D *362:1 1.4
*END

*D_NET *363 0.0012902

*CONN
*I *1254:D I *C 33.785 75.835 *L 0.00183 *D SDFFQX1
*I *1274:Y O *C 32.335 70.035 *L 0 *D OAI21XL

*CAP
1 *363:1 0.000503747
2 *363:2 0.000503747
3 *363:3 0.000141352
4 *363:4 0.000141352

*RES
1 *363:5 *1274:Y 1.4
2 *363:4 *363:5 1.4
3 *363:3 *363:4 0.621414
4 *363:2 *363:3 1.4
5 *363:1 *363:2 2.48577
6 *1254:D *363:1 1.4
*END

*D_NET *364 0.000610664

*CONN
*I *1252:D I *C 32.335 52.345 *L 0.00183 *D SDFFQX1
*I *1273:Y O *C 32.045 49.155 *L 0 *D OAI21XL

*CAP
1 *364:2 2.82705e-05
2 *364:3 2.82705e-05
3 *364:4 0.000277062
4 *364:5 0.000277062

*RES
1 *364:5 *1273:Y 1.4
2 *364:4 *364:5 1.36717
3 *364:3 *364:4 1.4
4 *364:2 *364:3 0.124283
5 *364:1 *364:2 1.4
6 *1252:D *364:1 1.4
*END

*D_NET *365 0.00128458

*CONN
*I *1226:D I *C 25.665 78.445 *L 0.00183 *D SDFFQX1
*I *1272:Y O *C 32.625 79.025 *L 0 *D OAI21XL

*CAP
1 *365:1 1.97144e-05
2 *365:2 1.97144e-05
3 *365:3 0.000602006
4 *365:4 0.000602006
5 *365:5 2.05677e-05
6 *365:6 2.05677e-05

*RES
1 *365:6 *1272:Y 1.4
2 *365:5 *365:6 0.124283
3 *365:4 *365:5 1.4
4 *365:3 *365:4 2.98279
5 *365:2 *365:3 1.4
6 *365:1 *365:2 0.124288
7 *1226:D *365:1 1.4
*END

*D_NET *366 0.00118787

*CONN
*I *1247:D I *C 36.105 39.295 *L 0.00183 *D SDFFQX1
*I *1271:Y O *C 30.595 38.715 *L 0 *D OAI21XL

*CAP
1 *366:1 2.51874e-05
2 *366:2 2.51874e-05
3 *366:3 0.000543561
4 *366:4 0.000543561
5 *366:5 2.51874e-05
6 *366:6 2.51874e-05

*RES
1 *366:6 *1271:Y 1.4
2 *366:5 *366:6 0.124288
3 *366:4 *366:5 1.4
4 *366:3 *366:4 2.36149
5 *366:2 *366:3 1.4
6 *366:1 *366:2 0.124288
7 *1247:D *366:1 1.4
*END

*D_NET *367 0.00143682

*CONN
*I *1244:D I *C 36.975 78.445 *L 0.00183 *D SDFFQX1
*I *1270:Y O *C 39.875 75.255 *L 0 *D OAI21XL

*CAP
1 *367:2 7.61427e-05
2 *367:3 7.61427e-05
3 *367:4 0.000274751
4 *367:5 0.000274751
5 *367:6 0.000367516
6 *367:7 0.000367516

*RES
1 *367:8 *1270:Y 1.4
2 *367:7 *367:8 1.4
3 *367:6 *367:7 1.61568
4 *367:5 *367:6 1.4
5 *367:4 *367:5 1.36717
6 *367:3 *367:4 1.4
7 *367:2 *367:3 0.372849
8 *367:1 *367:2 1.4
9 *1244:D *367:1 1.4
*END

*D_NET *368 0.000610662

*CONN
*I *1242:D I *C 40.165 65.395 *L 0.00183 *D SDFFQX1
*I *1269:Y O *C 40.455 68.585 *L 0 *D OAI21XL

*CAP
1 *368:1 0.000277061
2 *368:2 0.000277061
3 *368:3 2.82705e-05
4 *368:4 2.82705e-05

*RES
1 *368:5 *1269:Y 1.4
2 *368:4 *368:5 1.4
3 *368:3 *368:4 0.124283
4 *368:2 *368:3 1.4
5 *368:1 *368:2 1.36718
6 *1242:D *368:1 1.4
*END

*D_NET *369 0.000919947

*CONN
*I *1222:D I *C 53.505 34.075 *L 0.00183 *D SDFFQX1
*I *1268:Y O *C 51.475 37.265 *L 0 *D OAI21XL

*CAP
1 *369:2 8.29136e-05
2 *369:3 8.29136e-05
3 *369:4 0.000264082
4 *369:5 0.000264082
5 *369:6 0.000112978
6 *369:7 0.000112978

*RES
1 *369:8 *1268:Y 1.4
2 *369:7 *369:8 1.4
3 *369:6 *369:7 0.497154
4 *369:5 *369:6 1.4
5 *369:4 *369:5 1.36711
6 *369:3 *369:4 1.4
7 *369:2 *369:3 0.372865
8 *369:1 *369:2 1.4
9 *1222:D *369:1 1.4
*END

*D_NET *370 0.000879463

*CONN
*I *1240:D I *C 23.925 73.225 *L 0.00183 *D SDFFQX1
*I *1267:Y O *C 26.245 75.255 *L 0 *D OAI21XL

*CAP
1 *370:1 4.72548e-05
2 *370:2 4.72548e-05
3 *370:3 8.83706e-05
4 *370:4 8.83706e-05
5 *370:5 0.000212647
6 *370:6 0.000212647
7 *370:7 9.14595e-05
8 *370:8 9.14595e-05

*RES
1 *370:9 *1267:Y 1.4
2 *370:8 *370:9 1.4
3 *370:7 *370:8 0.497152
4 *370:6 *370:7 1.4
5 *370:5 *370:6 1.11854
6 *370:4 *370:5 1.4
7 *370:3 *370:4 0.497155
8 *370:2 *370:3 1.4
9 *370:1 *370:2 0.248565
10 *1240:D *370:1 1.4
*END

*D_NET *371 0.00104913

*CONN
*I *1238:D I *C 24.505 60.175 *L 0.00183 *D SDFFQX1
*I *1266:Y O *C 26.535 58.145 *L 0 *D OAI21XL

*CAP
1 *371:1 0.000259902
2 *371:2 0.000259902
3 *371:3 0.000163915
4 *371:4 0.000163915
5 *371:5 0.000100749
6 *371:6 0.000100749

*RES
1 *371:6 *1266:Y 1.4
2 *371:5 *371:6 0.497155
3 *371:4 *371:5 1.4
4 *371:3 *371:4 0.870012
5 *371:2 *371:3 1.4
6 *371:1 *371:2 1.36711
7 *1238:D *371:1 1.4
*END

*D_NET *372 0.00136254

*CONN
*I *1236:D I *C 42.485 26.245 *L 0.00183 *D SDFFQX1
*I *1265:Y O *C 43.355 32.045 *L 0 *D OAI21XL

*CAP
1 *372:1 2.31721e-05
2 *372:2 2.31721e-05
3 *372:3 0.000102569
4 *372:4 0.000102569
5 *372:5 0.000526921
6 *372:6 0.000526921
7 *372:7 2.86085e-05
8 *372:8 2.86085e-05

*RES
1 *372:9 *1265:Y 1.4
2 *372:8 *372:9 1.4
3 *372:7 *372:8 0.124289
4 *372:6 *372:7 1.4
5 *372:5 *372:6 2.61004
6 *372:4 *372:5 1.4
7 *372:3 *372:4 0.497131
8 *372:2 *372:3 1.4
9 *372:1 *372:2 0.124288
10 *1236:D *372:1 1.4
*END

*D_NET *373 0.00106908

*CONN
*I *1233:D I *C 36.685 28.855 *L 0.00183 *D SDFFQX1
*I *1264:Y O *C 34.075 32.045 *L 0 *D OAI21XL

*CAP
1 *373:1 5.03749e-05
2 *373:2 5.03749e-05
3 *373:3 0.000200259
4 *373:4 0.000200259
5 *373:5 0.000226687
6 *373:6 0.000226687
7 *373:7 5.7217e-05
8 *373:8 5.7217e-05

*RES
1 *373:9 *1264:Y 1.4
2 *373:8 *373:9 1.4
3 *373:7 *373:8 0.248577
4 *373:6 *373:7 1.4
5 *373:5 *373:6 1.11859
6 *373:4 *373:5 1.4
7 *373:3 *373:4 0.870021
8 *373:2 *373:3 1.4
9 *373:1 *373:2 0.248575
10 *1233:D *373:1 1.4
*END

*D_NET *374 0.00106908

*CONN
*I *1219:D I *C 36.395 34.075 *L 0.00183 *D SDFFQX1
*I *1263:Y O *C 37.845 37.265 *L 0 *D OAI21XL

*CAP
1 *374:2 5.7217e-05
2 *374:3 5.7217e-05
3 *374:4 0.000277062
4 *374:5 0.000277062
5 *374:6 0.000200259
6 *374:7 0.000200259

*RES
1 *374:8 *1263:Y 1.4
2 *374:7 *374:8 1.4
3 *374:6 *374:7 0.870021
4 *374:5 *374:6 1.4
5 *374:4 *374:5 1.36717
6 *374:3 *374:4 1.4
7 *374:2 *374:3 0.248577
8 *374:1 *374:2 1.4
9 *1219:D *374:1 1.4
*END

*D_NET *375 0.000975169

*CONN
*I *1223:D I *C 36.105 41.905 *L 0.00183 *D SDFFQX1
*I *1262:Y O *C 39.005 41.325 *L 0 *D OAI211X1

*CAP
1 *375:1 7.55623e-05
2 *375:2 7.55623e-05
3 *375:3 0.000286085
4 *375:4 0.000286085
5 *375:5 0.000125937
6 *375:6 0.000125937

*RES
1 *375:6 *1262:Y 1.4
2 *375:5 *375:6 0.621439
3 *375:4 *375:5 1.4
4 *375:3 *375:4 1.24289
5 *375:2 *375:3 1.4
6 *375:1 *375:2 0.372863
7 *1223:D *375:1 1.4
*END

*D_NET *376 0.000972719

*CONN
*I *1260:D I *C 97.005 73.225 *L 0.00183 *D SDFFQX1
*I *1261:Y O *C 99.905 70.035 *L 0 *D AO22XL

*CAP
1 *376:1 0.000256865
2 *376:2 0.000256865
3 *376:3 0.000229494
4 *376:4 0.000229494

*RES
1 *376:5 *1261:Y 1.4
2 *376:4 *376:5 1.4
3 *376:3 *376:4 1.24289
4 *376:2 *376:3 1.4
5 *376:1 *376:2 1.36713
6 *1260:D *376:1 1.4
*END

*D_NET *377 0.00287052

*CONN
*I *941:C I *C 16.095 41.905 *L 0.00167 *D AND3X1
*I *940:C I *C 16.385 39.295 *L 0.00167 *D AND3X1
*I *950:C I *C 19.285 41.905 *L 0.00167 *D AND3X1
*I *942:B I *C 15.515 34.075 *L 0.00172 *D AND2X1
*I *1218:Y O *C 18.415 33.495 *L 0 *D NOR3BX1

*CAP
1 *377:1 2.34394e-05
2 *377:2 2.34394e-05
3 *377:3 2.36992e-05
4 *377:4 7.10977e-05
5 *377:5 0.000236992
6 *377:6 0.000187515
7 *377:7 0.000189594
8 *377:8 0.000609423
9 *377:9 0.000187515
10 *377:10 2.34394e-05
11 *377:11 0.000679741
12 *377:13 2.34394e-05
13 *377:14 0.000118496
14 *377:15 7.03181e-05
15 *377:17 0.000118496
16 *377:18 0.000118496
17 *377:20 0.000118496
18 *377:22 2.34394e-05
19 *377:23 2.34394e-05

*RES
1 *377:23 *1218:Y 1.4
2 *377:22 *377:23 0.124283
3 *377:20 *377:22 1.4
4 *377:19 *942:B 1.4
5 *377:18 *377:20 0.621444
6 *377:17 *377:19 1.4
7 *377:15 *377:18 1.4
8 *377:14 *377:17 0.621444
9 *377:13 *950:C 1.4
10 *377:11 *377:15 0.372848
11 *377:11 *377:14 1.4
12 *377:10 *377:13 0.124283
13 *377:9 *940:C 1.4
14 *377:8 *377:11 3.23135
15 *377:7 *377:10 1.4
16 *377:6 *377:9 0.994261
17 *377:5 *377:8 1.4
18 *377:5 *377:7 0.99431
19 *377:4 *377:6 1.4
20 *377:4 *377:5 0.248577
21 *377:3 *377:4 0.124289
22 *377:2 *377:3 1.4
23 *377:1 *377:2 0.124283
24 *941:C *377:1 1.4
*END

*D_NET *378 0.00339992

*CONN
*I *1128:B I *C 24.795 31.465 *L 0.00167 *D NAND2XL
*I *946:B I *C 18.125 36.7125 *L 0.00178 *D AND3X1
*I *1131:AN I *C 14.935 36.685 *L 0.00174 *D NOR2BX1
*I *942:A I *C 14.935 34.075 *L 0.00178 *D AND2X1
*I *1217:Y O *C 16.685 33.785 *L 0 *D NOR2BX1

*CAP
1 *378:1 2.34394e-05
2 *378:2 2.34394e-05
3 *378:3 0.000473985
4 *378:4 0.000473985
5 *378:5 0.00035159
6 *378:6 0.00035159
7 *378:7 7.10977e-05
8 *378:8 0.000213293
9 *378:9 4.93035e-05
10 *378:10 0.000142195
11 *378:11 4.93035e-05
12 *378:12 0.000234394
13 *378:14 4.68787e-05
14 *378:15 0.000187515
15 *378:16 0.000118496
16 *378:17 2.36992e-05
17 *378:18 0.000118496
18 *378:19 2.36992e-05
19 *378:20 0.000210954
20 *378:21 8.08254e-07
21 *378:23 0.000210954
22 *378:24 8.08254e-07

*RES
1 *378:24 *1217:Y 1.4
2 *378:23 *942:A 1.4
3 *378:21 *378:24 0.00428561
4 *378:20 *378:23 1.11854
5 *378:20 *1131:AN 1.4
6 *378:19 *378:21 1.4
7 *378:18 *378:20 1.4
8 *378:17 *378:19 0.124289
9 *378:16 *378:18 0.621444
10 *378:15 *378:17 1.4
11 *378:14 *378:16 1.4
12 *378:12 *378:15 0.994261
13 *378:12 *378:14 0.248565
14 *378:11 *946:B 1.4
15 *378:10 *378:12 1.4
16 *378:9 *378:11 0.261422
17 *378:8 *378:10 0.745732
18 *378:8 *378:9 1.4
19 *378:7 *378:8 0.372866
20 *378:6 *378:7 1.4
21 *378:5 *378:6 1.86424
22 *378:4 *378:5 1.4
23 *378:3 *378:4 2.48577
24 *378:2 *378:3 1.4
25 *378:1 *378:2 0.124283
26 *1128:B *378:1 1.4
*END

*D_NET *379 0.00160219

*CONN
*I *944:B I *C 25.375 36.685 *L 0.00171 *D NOR2XL
*I *1216:Y O *C 22.185 32.335 *L 0 *D NAND2BX1
*I *951:A I *C 20.735 36.975 *L 0.00273 *D CLKINVX1

*CAP
1 *379:1 4.68787e-05
2 *379:2 4.68787e-05
3 *379:3 0.000260692
4 *379:4 0.000260692
5 *379:5 0.00037503
6 *379:6 7.03181e-05
7 *379:7 0.000304712
8 *379:8 0.000118496
9 *379:10 0.000118496

*RES
1 *379:11 *951:A 1.4
2 *379:10 *379:11 1.4
3 *379:8 *379:10 0.621444
4 *379:7 *1216:Y 1.4
5 *379:6 *379:8 1.4
6 *379:5 *379:7 1.61567
7 *379:5 *379:6 0.372848
8 *379:4 *379:5 1.4
9 *379:3 *379:4 1.36718
10 *379:2 *379:3 1.4
11 *379:1 *379:2 0.248565
12 *944:B *379:1 1.4
*END

*D_NET *380 0.00595304

*CONN
*I *967:B I *C 32.045 58.145 *L 0.00284 *D NAND2X1
*I *960:B I *C 30.595 54.665 *L 0.00449 *D ADDHX1
*I *969:Y O *C 52.635 53.215 *L 0 *D NOR2X1
*I *968:B0 I *C 54.665 52.635 *L 0.00175 *D AO21X1

*CAP
1 *380:2 0.000113082
2 *380:3 0.000113082
3 *380:4 0.000302248
4 *380:5 0.000428185
5 *380:6 2.82705e-05
6 *380:7 0.000125937
7 *380:8 2.82705e-05
8 *380:9 0.00211898
9 *380:11 0.00211898
10 *380:13 2.40564e-05
11 *380:14 2.40564e-05
12 *380:16 0.00019178
13 *380:17 0.00019178
14 *380:18 7.21692e-05
15 *380:19 7.21692e-05

*RES
1 *380:19 *968:B0 1.4
2 *380:18 *380:19 0.372866
3 *380:17 *380:18 1.4
4 *380:16 *380:17 0.870021
5 *380:14 *380:16 1.4
6 *380:13 *969:Y 1.4
7 *380:13 *380:14 0.124289
8 *380:11 *380:13 1.4
9 *380:10 *960:B 1.4
10 *380:9 *380:11 9.32122
11 *380:8 *380:10 1.4
12 *380:7 *380:9 1.4
13 *380:6 *380:8 0.124283
14 *380:5 *380:7 0.621444
15 *380:5 *380:6 1.4
16 *380:4 *380:5 1.49146
17 *380:3 *380:4 1.4
18 *380:2 *380:3 0.497131
19 *380:1 *380:2 1.4
20 *967:B *380:1 1.4
*END

*D_NET *381 0.00883836

*CONN
*I *966:D I *C 62.355 73.15 *L 0.00164 *D OR4X1
*I *965:B I *C 56.115 73.225 *L 0.00171 *D NOR2XL
*I *963:A1 I *C 41.325 73.805 *L 0.00163 *D AO21X1
*I *967:Y O *C 32.045 57.275 *L 0 *D NAND2X1
*I *955:B0 I *C 31.755 63.075 *L 0.0028 *D OAI21X1

*CAP
1 *381:1 1.16134e-05
2 *381:2 1.78349e-05
3 *381:3 6.22148e-06
4 *381:4 0.000602736
5 *381:5 0.00203274
6 *381:7 0.00233466
7 *381:9 5.03747e-05
8 *381:10 0.000904656
9 *381:11 5.03747e-05
10 *381:12 0.000881557
11 *381:14 0.0013853
12 *381:15 2.82705e-05
13 *381:16 0.000503747
14 *381:17 2.82705e-05

*RES
1 *381:19 *955:B0 1.4
2 *381:17 *381:19 1.4
3 *381:16 *967:Y 1.4
4 *381:15 *381:17 0.124283
5 *381:14 *381:16 2.48577
6 *381:14 *381:15 1.4
7 *381:12 *381:14 4.35011
8 *381:11 *963:A1 1.4
9 *381:10 *381:12 1.4
10 *381:9 *381:11 0.248578
11 *381:7 *381:10 3.97705
12 *381:7 *381:9 1.4
13 *381:6 *965:B 1.4
14 *381:5 *381:7 6.3385
15 *381:5 *381:6 1.4
16 *381:4 *381:5 2.73435
17 *381:3 *381:4 1.4
18 *381:2 *381:3 0.0321436
19 *381:1 *381:2 0.0600015
20 *966:D *381:1 1.4
*END

*D_NET *382 0.000706634

*CONN
*I *1066:B1 I *C 36.395 57.565 *L 0.00174 *D OAI22XL
*I *1215:Y O *C 38.2175 57.855 *L 0 *D INVX1

*CAP
1 *382:1 7.5562e-05
2 *382:2 7.5562e-05
3 *382:3 0.000169623
4 *382:4 0.000169623
5 *382:5 0.000100749
6 *382:6 0.000108132
7 *382:7 7.3825e-06

*RES
1 *382:7 *1215:Y 1.4
2 *382:6 *382:7 0.0364295
3 *382:5 *382:6 0.497155
4 *382:4 *382:5 1.4
5 *382:3 *382:4 0.745697
6 *382:2 *382:3 1.4
7 *382:1 *382:2 0.372866
8 *1066:B1 *382:1 1.4
*END

*D_NET *383 0.000347845

*CONN
*I *1066:A1 I *C 35.815 57.855 *L 0.00172 *D OAI22XL
*I *1214:Y O *C 34.4475 57.565 *L 0 *D INVXL

*CAP
1 *383:2 0.000141352
2 *383:3 0.000141352
3 *383:4 2.51873e-05
4 *383:5 3.25698e-05
5 *383:6 7.3825e-06

*RES
1 *383:6 *1214:Y 1.4
2 *383:5 *383:6 0.0364295
3 *383:4 *383:5 0.124289
4 *383:3 *383:4 1.4
5 *383:2 *383:3 0.621414
6 *383:1 *383:2 1.4
7 *1066:A1 *383:1 1.4
*END

*D_NET *384 0.0204277

*CONN
*I *1181:B1 I *C 69.455 23.635 *L 0.00282 *D OAI22X1
*I *1179:B1 I *C 70.035 15.805 *L 0.00282 *D OAI22X1
*I *1206:B I *C 52.635 15.805 *L 0.00381 *D CLKAND2X3
*I *1133:A1 I *C 43.935 12.905 *L 0.00268 *D AOI221X1
*I *1205:B I *C 40.455 13.195 *L 0.00217 *D CLKAND2X2
*I *1354:B1 I *C 36.105 21.025 *L 0.00171 *D AO22XL
*I *1352:B1 I *C 36.685 23.635 *L 0.00171 *D AO22XL
*I *1353:B1 I *C 30.305 13.195 *L 0.00171 *D AO22XL
*I *1180:A1 I *C 36.685 26.825 *L 0.0028 *D AOI22X1
*I *1177:A0 I *C 25.665 16.095 *L 0.00157 *D AOI22XL
*I *1178:A1 I *C 20.445 11.165 *L 0.0028 *D AOI22X1
*I *1185:A1 I *C 15.805 16.385 *L 0.0028 *D AOI22X1
*I *1184:A1 I *C 16.095 11.165 *L 0.0028 *D AOI22X1
*I *1213:Y O *C 12.035 10.295 *L 0 *D INVX8
*I *1182:A1 I *C 5.655 16.385 *L 0.0028 *D AOI22X1
*I *1176:A0 I *C 15.225 26.535 *L 0.00157 *D AOI22XL
*I *1183:A1 I *C 10.005 11.165 *L 0.0028 *D AOI22X1
*I *1175:A0 I *C 13.775 28.565 *L 0.00157 *D AOI22XL

*CAP
1 *384:2 0.000100922
2 *384:3 0.000100922
3 *384:4 0.000571554
4 *384:5 0.000571554
5 *384:6 5.04611e-05
6 *384:7 0.00156429
7 *384:9 0.00212863
8 *384:12 0.000614799
9 *384:14 0.000148098
10 *384:15 0.000148098
11 *384:16 0.000153854
12 *384:17 0.000461563
13 *384:18 6.34705e-05
14 *384:19 0.000692344
15 *384:20 6.34705e-05
16 *384:21 4.23137e-05
17 *384:22 0.000384635
18 *384:24 4.23137e-05
19 *384:25 0.000550078
20 *384:27 0.000719333
21 *384:28 2.11568e-05
22 *384:29 0.000433213
23 *384:31 0.000512847
24 *384:32 0.000242802
25 *384:33 5.12847e-05
26 *384:34 0.000769271
27 *384:35 5.7217e-05
28 *384:36 5.12847e-05
29 *384:37 2.11568e-05
30 *384:38 0.000426236
31 *384:39 5.7217e-05
32 *384:41 2.11568e-05
33 *384:42 0.000190412
34 *384:43 0.000169812
35 *384:47 0.000190412
36 *384:48 0.000164056
37 *384:50 0.000148044
38 *384:51 0.000164056
39 *384:52 0.000148044
40 *384:53 0.000370067
41 *384:55 0.000631291
42 *384:58 0.000261224
43 *384:60 0.000430647
44 *384:61 0.000369126
45 *384:62 6.1521e-05
46 *384:63 2.17687e-05
47 *384:64 6.5306e-05
48 *384:65 8.70747e-05
49 *384:66 0.000370067
50 *384:67 0.000676731
51 *384:68 0.000827209
52 *384:69 6.1521e-05
53 *384:70 0.000304761
54 *384:71 0.000676731
55 *384:73 0.000761903
56 *384:74 6.1521e-05
57 *384:75 2.0507e-05
58 *384:76 0.000108843
59 *384:80 2.0507e-05
60 *384:82 0.000195918
61 *384:84 0.000152381
62 *384:85 4.54125e-05
63 *384:86 8.70747e-05
64 *384:87 0.000152381
65 *384:88 4.54125e-05
66 *384:89 0.000209488
67 *384:90 4.1014e-05
68 *384:92 0.000209488
69 *384:93 4.1014e-05
70 *384:94 2.36992e-05
71 *384:96 2.36992e-05

*RES
1 *384:97 *1175:A0 1.4
2 *384:96 *384:97 1.4
3 *384:94 *384:96 0.124289
4 *384:93 *1183:A1 1.4
5 *384:92 *384:94 1.4
6 *384:90 *384:93 0.248567
7 *384:89 *384:92 1.11854
8 *384:88 *1176:A0 1.4
9 *384:87 *384:90 1.4
10 *384:86 *384:89 1.4
11 *384:85 *384:88 0.248566
12 *384:84 *384:87 0.870021
13 *384:82 *384:86 0.497155
14 *384:82 *384:85 1.4
15 *384:80 *384:84 1.4
16 *384:78 *1182:A1 1.4
17 *384:76 *384:82 0.621444
18 *384:75 *1213:Y 1.4
19 *384:75 *384:80 0.124283
20 *384:74 *1184:A1 1.4
21 *384:73 *384:78 1.4
22 *384:72 *1185:A1 1.4
23 *384:71 *384:76 1.4
24 *384:70 *384:75 1.4
25 *384:69 *384:74 0.37285
26 *384:68 *384:73 4.35011
27 *384:68 *384:72 1.4
28 *384:67 *384:71 4.10135
29 *384:66 *384:70 1.74004
30 *384:66 *384:69 1.4
31 *384:65 *384:68 0.372866
32 *384:65 *384:67 1.4
33 *384:64 *384:66 0.372866
34 *384:63 *384:65 0.124289
35 *384:62 *384:64 1.4
36 *384:61 *384:63 1.4
37 *384:60 *384:62 0.37285
38 *384:60 *384:61 2.2371
39 *384:58 *384:60 1.4
40 *384:57 *1178:A1 1.4
41 *384:55 *384:58 1.49146
42 *384:55 *384:57 1.4
43 *384:54 *1177:A0 1.4
44 *384:53 *384:55 2.11291
45 *384:52 *384:54 1.4
46 *384:51 *384:53 1.4
47 *384:50 *384:52 0.745705
48 *384:48 *384:51 0.994267
49 *384:47 *384:50 1.4
50 *384:44 *1180:A1 1.4
51 *384:43 *384:48 1.4
52 *384:42 *384:47 1.11859
53 *384:41 *1353:B1 1.4
54 *384:40 *1352:B1 1.4
55 *384:39 *384:44 1.4
56 *384:38 *384:43 0.869994
57 *384:38 *384:42 1.4
58 *384:37 *384:41 0.124288
59 *384:36 *384:40 1.4
60 *384:35 *384:39 0.248577
61 *384:34 *384:38 1.24283
62 *384:34 *384:37 1.4
63 *384:33 *384:36 0.248565
64 *384:32 *384:35 1.4
65 *384:31 *384:34 2.48565
66 *384:29 *384:33 1.4
67 *384:29 *384:32 1.36717
68 *384:28 *384:31 1.4
69 *384:27 *1354:B1 1.4
70 *384:27 *384:29 1.11859
71 *384:25 *384:28 0.124288
72 *384:25 *384:27 3.1072
73 *384:24 *1205:B 1.4
74 *384:22 *384:25 1.4
75 *384:21 *384:24 0.248576
76 *384:20 *1133:A1 1.4
77 *384:19 *384:22 1.86424
78 *384:19 *384:21 1.4
79 *384:18 *384:20 0.372864
80 *384:17 *384:19 1.49139
81 *384:17 *384:18 1.4
82 *384:16 *384:17 0.745696
83 *384:15 *384:16 1.4
84 *384:14 *384:15 0.870017
85 *384:12 *384:14 1.4
86 *384:11 *1206:B 1.4
87 *384:9 *384:12 2.98278
88 *384:9 *384:11 1.4
89 *384:8 *1179:B1 1.4
90 *384:7 *384:9 7.45696
91 *384:7 *384:8 1.4
92 *384:6 *384:7 0.248565
93 *384:5 *384:6 1.4
94 *384:4 *384:5 3.3558
95 *384:3 *384:4 1.4
96 *384:2 *384:3 0.497131
97 *384:1 *384:2 1.4
98 *1181:B1 *384:1 1.4
*END

*D_NET *385 0.00847141

*CONN
*I *1133:C0 I *C 45.095 13.195 *L 0.00277 *D AOI221X1
*I *1206:A I *C 52.925 16.095 *L 0.004 *D CLKAND2X3
*I *1208:A I *C 61.045 12.905 *L 0.00567 *D AND2X6
*I *1212:Y O *C 67.425 17.835 *L 0 *D CLKINVX2
*I *1186:A1 I *C 72.355 28.275 *L 0.0028 *D AOI22X1
*I *1174:A1 I *C 73.225 12.615 *L 0.0028 *D AOI22X1

*CAP
1 *385:1 6.34705e-05
2 *385:2 6.34705e-05
3 *385:3 0.000691314
4 *385:4 0.000691314
5 *385:5 0.000169349
6 *385:6 0.000148181
7 *385:7 2.11687e-05
8 *385:9 0.000706455
9 *385:10 0.000706455
10 *385:11 0.000359867
11 *385:12 0.000296361
12 *385:13 6.3506e-05
13 *385:14 0.000555072
14 *385:16 0.000555072
15 *385:17 2.11687e-05
16 *385:18 2.11687e-05
17 *385:20 0.000428919
18 *385:21 0.000504611
19 *385:22 7.56916e-05
20 *385:23 0.000762194
21 *385:24 0.000402205
22 *385:25 0.000762194
23 *385:26 0.000402205

*RES
1 *385:26 *1174:A1 1.4
2 *385:25 *1186:A1 1.4
3 *385:24 *385:26 2.36149
4 *385:23 *385:25 4.35006
5 *385:22 *385:24 1.4
6 *385:21 *385:23 1.4
7 *385:21 *385:22 0.372848
8 *385:20 *385:21 2.11281
9 *385:18 *385:20 1.4
10 *385:17 *1212:Y 1.4
11 *385:17 *385:18 0.124289
12 *385:16 *385:17 1.4
13 *385:14 *385:16 2.73422
14 *385:13 *1208:A 1.4
15 *385:12 *385:14 1.4
16 *385:11 *385:13 0.372866
17 *385:11 *385:12 1.74004
18 *385:10 *385:11 1.4
19 *385:9 *385:10 3.47991
20 *385:7 *385:9 1.4
21 *385:6 *1206:A 1.4
22 *385:5 *385:7 0.124289
23 *385:5 *385:6 0.870021
24 *385:4 *385:5 1.4
25 *385:3 *385:4 3.35563
26 *385:2 *385:3 1.4
27 *385:1 *385:2 0.372864
28 *1133:C0 *385:1 1.4
*END

*D_NET *386 0.00170813

*CONN
*I *1203:B I *C 21.605 39.295 *L 0.00172 *D AND2X1
*I *950:A I *C 20.445 41.905 *L 0.00178 *D AND3X1
*I *1204:B I *C 20.445 39.295 *L 0.00171 *D NOR2XL
*I *1211:Y O *C 17.9175 42.195 *L 0 *D CLKINVX1

*CAP
1 *386:2 7.10977e-05
2 *386:3 7.10977e-05
3 *386:4 0.000257833
4 *386:5 0.000257833
5 *386:6 2.36992e-05
6 *386:7 0.000236992
7 *386:8 4.68787e-05
8 *386:9 0.000213293
9 *386:10 0.000257833
10 *386:11 2.34394e-05
11 *386:13 0.000210954
12 *386:14 3.03095e-05
13 *386:16 6.87015e-06

*RES
1 *386:16 *1211:Y 1.4
2 *386:14 *386:16 0.0364277
3 *386:13 *1204:B 1.4
4 *386:11 *386:14 0.124283
5 *386:10 *386:13 1.11854
6 *386:10 *950:A 1.4
7 *386:9 *386:11 1.4
8 *386:8 *386:10 0.248565
9 *386:7 *386:9 1.1186
10 *386:7 *386:8 1.4
11 *386:6 *386:7 0.124289
12 *386:5 *386:6 1.4
13 *386:4 *386:5 1.36711
14 *386:3 *386:4 1.4
15 *386:2 *386:3 0.372866
16 *386:1 *386:2 1.4
17 *1203:B *386:1 1.4
*END

*D_NET *387 0.000784295

*CONN
*I *1061:B0 I *C 67.715 28.565 *L 0.00262 *D OAI22X1
*I *1210:Y O *C 69.6625 28.565 *L 0 *D INVX1

*CAP
1 *387:1 9.60298e-05
2 *387:2 9.60298e-05
3 *387:3 0.000193465
4 *387:4 0.000193465
5 *387:5 9.60298e-05
6 *387:6 0.000102653
7 *387:7 6.62274e-06

*RES
1 *387:7 *1210:Y 1.4
2 *387:6 *387:7 0.0342849
3 *387:5 *387:6 0.497131
4 *387:4 *387:5 1.4
5 *387:3 *387:4 0.870018
6 *387:2 *387:3 1.4
7 *387:1 *387:2 0.497131
8 *1061:B0 *387:1 1.4
*END

*D_NET *388 0.00103889

*CONN
*I *1142:A0 I *C 58.435 42.195 *L 0.00271 *D OAI21X1
*I *1209:Y O *C 60.9625 39.005 *L 0 *D INVX1

*CAP
1 *388:1 7.20223e-05
2 *388:2 7.20223e-05
3 *388:3 0.000248741
4 *388:4 0.000248741
5 *388:5 0.00019206
6 *388:6 0.000198682
7 *388:7 6.62274e-06

*RES
1 *388:7 *1209:Y 1.4
2 *388:6 *388:7 0.0342849
3 *388:5 *388:6 0.994261
4 *388:4 *388:5 1.4
5 *388:3 *388:4 1.11859
6 *388:2 *388:3 1.4
7 *388:1 *388:2 0.372848
8 *1142:A0 *388:1 1.4
*END

*D_NET *389 0.00966013

*CONN
*I *1160:B I *C 65.395 52.345 *L 0.00171 *D NOR2XL
*I *1164:A I *C 56.405 44.225 *L 0.00263 *D NOR2X1
*I *1142:A1 I *C 58.145 41.905 *L 0.00274 *D OAI21X1
*I *1201:Y O *C 65.4775 33.785 *L 0 *D CLKINVX1
*I *1159:B I *C 70.325 21.025 *L 0.00171 *D NOR2XL
*I *1156:B I *C 70.325 18.415 *L 0.00171 *D NOR2XL

*CAP
1 *389:2 2.73971e-05
2 *389:3 2.73971e-05
3 *389:4 0.000576203
4 *389:5 0.000576203
5 *389:6 0.000718585
6 *389:7 0.000718585
7 *389:8 9.60298e-05
8 *389:9 0.000288089
9 *389:10 0.000110551
10 *389:11 0.000768238
11 *389:12 0.000110551
12 *389:13 5.52757e-05
13 *389:14 0.000576179
14 *389:16 5.52757e-05
15 *389:17 0.000746223
16 *389:20 0.000746223
17 *389:22 9.60298e-05
18 *389:23 0.000103066
19 *389:24 7.03666e-06
20 *389:25 2.76379e-05
21 *389:27 2.76379e-05
22 *389:28 0.00100665
23 *389:29 0.00100665
24 *389:30 0.000403689
25 *389:31 0.000403689
26 *389:32 0.000190518
27 *389:34 0.000190518

*RES
1 *389:34 *1156:B 1.4
2 *389:32 *389:34 1.1186
3 *389:32 *1159:B 1.4
4 *389:31 *389:32 1.4
5 *389:30 *389:31 1.98852
6 *389:29 *389:30 1.4
7 *389:28 *389:29 5.46854
8 *389:27 *389:28 1.4
9 *389:25 *389:27 0.124288
10 *389:24 *1201:Y 1.4
11 *389:23 *389:25 1.4
12 *389:23 *389:24 0.0364277
13 *389:22 *389:23 0.497131
14 *389:20 *389:22 1.4
15 *389:19 *1142:A1 1.4
16 *389:17 *389:20 3.35578
17 *389:16 *389:19 1.4
18 *389:15 *1164:A 1.4
19 *389:14 *389:17 1.4
20 *389:13 *389:16 0.248576
21 *389:12 *389:15 1.4
22 *389:11 *389:14 2.98278
23 *389:11 *389:13 1.4
24 *389:10 *389:12 0.497153
25 *389:9 *389:11 0.994261
26 *389:9 *389:10 1.4
27 *389:8 *389:9 0.497131
28 *389:7 *389:8 1.4
29 *389:6 *389:7 3.23149
30 *389:5 *389:6 1.4
31 *389:4 *389:5 2.98279
32 *389:3 *389:4 1.4
33 *389:2 *389:3 0.124289
34 *389:1 *389:2 1.4
35 *1160:B *389:1 1.4
*END

*D_NET *390 0.0341651

*CONN
*I *1134:A0 I *C 7.975 73.515 *L 0.00157 *D AOI22XL
*I *1140:A0 I *C 7.105 68.295 *L 0.00157 *D AOI22XL
*I *1351:B1 I *C 6.235 54.955 *L 0.00171 *D AO22XL
*I *1189:B I *C 22.185 54.955 *L 0.00167 *D NAND2XL
*I *1148:A1 I *C 20.445 49.445 *L 0.00168 *D AO22XL
*I *1146:A1 I *C 47.705 59.595 *L 0.0028 *D AOI22X1
*I *1188:B I *C 21.605 47.125 *L 0.00172 *D AND2X1
*I *1057:A0 I *C 57.275 73.515 *L 0.00152 *D AOI32XL
*I *1141:A1 I *C 63.945 38.715 *L 0.0028 *D AOI22X1
*I *1201:A I *C 65.105 33.785 *L 0.00273 *D CLKINVX1
*I *1050:A1 I *C 67.135 26.535 *L 0.00278 *D AOI21X1
*I *1060:A1 I *C 66.555 12.905 *L 0.00268 *D AOI221X1
*I *1208:Y O *C 63.075 13.485 *L 0 *D AND2X6
*I *1139:B0 I *C 55.535 16.095 *L 0.00159 *D AOI22XL
*I *1144:B0 I *C 55.535 10.875 *L 0.00159 *D AOI22XL
*I *1154:B I *C 41.615 21.315 *L 0.00284 *D NAND2BX1
*I *1135:A1 I *C 34.075 12.615 *L 0.0028 *D AOI22X1

*CAP
1 *390:2 4.41853e-05
2 *390:3 4.41853e-05
3 *390:4 0.000425293
4 *390:5 0.00148853
5 *390:6 2.20927e-05
6 *390:7 0.00108686
7 *390:8 2.20927e-05
8 *390:9 8.83706e-05
9 *390:10 2.36274e-05
10 *390:12 8.83706e-05
11 *390:13 0.00101626
12 *390:15 2.36274e-05
13 *390:16 0.00110463
14 *390:17 2.36274e-05
15 *390:18 0.000110463
16 *390:19 0.000447134
17 *390:21 0.000378039
18 *390:22 2.20927e-05
19 *390:23 0.000634649
20 *390:24 0.000378039
21 *390:26 2.36992e-05
22 *390:27 0.000187515
23 *390:28 0.0024265
24 *390:30 2.36992e-05
25 *390:31 7.10977e-05
26 *390:32 0.00334414
27 *390:34 7.10977e-05
28 *390:35 0.000917642
29 *390:39 0.00117876
30 *390:42 0.00115471
31 *390:43 2.40564e-05
32 *390:45 0.000410956
33 *390:46 0.000410956
34 *390:47 0.00175374
35 *390:48 0.00175374
36 *390:49 0.000221103
37 *390:50 0.000331654
38 *390:51 0.000110551
39 *390:52 4.80149e-05
40 *390:53 0.000360112
41 *390:54 4.80149e-05
42 *390:55 0.00093629
43 *390:58 0.000576179
44 *390:59 0.000138189
45 *390:60 0.000193465
46 *390:61 5.52757e-05
47 *390:62 0.000959687
48 *390:63 2.40074e-05
49 *390:64 0.00102319
50 *390:65 2.40074e-05
51 *390:66 0.000302766
52 *390:67 6.3506e-05
53 *390:69 0.000302766
54 *390:71 2.11687e-05
55 *390:72 2.11687e-05
56 *390:73 0.000630763
57 *390:75 0.000655994
58 *390:76 0.000190518
59 *390:77 2.52305e-05
60 *390:78 0.000190518
61 *390:79 0.000148181
62 *390:80 2.52305e-05
63 *390:81 0.000190518
64 *390:82 2.52305e-05
65 *390:83 4.23373e-05
66 *390:84 0.0012261
67 *390:87 0.00130302
68 *390:89 0.000423137
69 *390:90 7.69271e-05
70 *390:91 0.000423137
71 *390:92 0.000211568
72 *390:94 0.000211568
73 *390:95 0.000589774
74 *390:96 0.000589774

*RES
1 *390:97 *1135:A1 1.4
2 *390:96 *390:97 1.4
3 *390:95 *390:96 2.8585
4 *390:94 *390:95 1.4
5 *390:92 *390:94 1.24288
6 *390:91 *1154:B 1.4
7 *390:90 *390:92 1.4
8 *390:89 *390:91 2.48576
9 *390:87 *390:90 0.372848
10 *390:87 *390:89 1.4
11 *390:85 *1144:B0 1.4
12 *390:84 *390:87 5.96557
13 *390:83 *1139:B0 1.4
14 *390:82 *390:85 1.4
15 *390:81 *390:84 1.4
16 *390:81 *390:83 0.248578
17 *390:80 *390:82 0.124283
18 *390:79 *390:81 0.870021
19 *390:78 *390:80 1.4
20 *390:77 *390:79 1.4
21 *390:76 *390:78 1.1186
22 *390:75 *390:77 0.124283
23 *390:75 *390:76 1.4
24 *390:73 *390:75 3.10707
25 *390:72 *1208:Y 1.4
26 *390:72 *390:73 1.4
27 *390:71 *390:72 0.124289
28 *390:69 *390:71 1.4
29 *390:67 *1060:A1 1.4
30 *390:66 *390:69 1.49139
31 *390:65 *1050:A1 1.4
32 *390:64 *390:67 0.372866
33 *390:64 *390:66 1.4
34 *390:63 *390:65 0.124283
35 *390:62 *390:64 5.59298
36 *390:61 *390:63 1.4
37 *390:60 *390:62 1.4
38 *390:60 *390:61 0.248576
39 *390:59 *390:60 0.621441
40 *390:58 *390:59 1.4
41 *390:55 *390:58 2.98278
42 *390:55 *1201:A 1.4
43 *390:54 *1141:A1 1.4
44 *390:53 *390:55 1.86424
45 *390:52 *390:54 0.248565
46 *390:51 *390:53 1.4
47 *390:50 *390:52 1.4
48 *390:50 *390:51 0.497153
49 *390:49 *390:50 0.994306
50 *390:48 *390:49 1.4
51 *390:47 *390:48 9.07278
52 *390:46 *390:47 1.4
53 *390:45 *390:46 1.86433
54 *390:43 *390:45 1.4
55 *390:42 *1057:A0 1.4
56 *390:39 *390:43 0.124289
57 *390:39 *390:42 5.96586
58 *390:38 *1188:B 1.4
59 *390:36 *1146:A1 1.4
60 *390:35 *390:39 1.4
61 *390:34 *390:38 1.4
62 *390:33 *1148:A1 1.4
63 *390:32 *390:36 1.4
64 *390:32 *390:35 4.10144
65 *390:31 *390:34 0.372866
66 *390:30 *390:33 1.4
67 *390:28 *390:32 11.0613
68 *390:27 *390:31 1.4
69 *390:26 *390:30 0.124289
70 *390:25 *1189:B 1.4
71 *390:24 *390:28 1.4
72 *390:23 *390:27 0.994261
73 *390:23 *390:26 1.4
74 *390:22 *390:25 1.4
75 *390:21 *390:24 1.98852
76 *390:19 *390:23 2.36137
77 *390:18 *390:22 0.124289
78 *390:18 *390:21 1.4
79 *390:17 *1351:B1 1.4
80 *390:16 *390:19 1.4
81 *390:16 *390:18 0.497155
82 *390:15 *390:17 0.124283
83 *390:13 *390:16 5.71728
84 *390:12 *390:15 1.4
85 *390:11 *1140:A0 1.4
86 *390:10 *390:13 1.4
87 *390:9 *390:12 0.497155
88 *390:8 *390:11 1.4
89 *390:7 *390:10 0.124283
90 *390:7 *390:9 1.4
91 *390:6 *390:8 0.124289
92 *390:5 *390:7 5.59272
93 *390:5 *390:6 1.4
94 *390:4 *390:5 2.23709
95 *390:3 *390:4 1.4
96 *390:2 *390:3 0.248577
97 *390:1 *390:2 1.4
98 *1134:A0 *390:1 1.4
*END

*D_NET *391 0.0328573

*CONN
*I *1134:B0 I *C 6.815 73.515 *L 0.00159 *D AOI22XL
*I *1351:A1 I *C 6.525 54.665 *L 0.00168 *D AO22XL
*I *1140:B0 I *C 5.945 68.295 *L 0.00159 *D AOI22XL
*I *1148:B1 I *C 20.735 49.735 *L 0.00171 *D AO22XL
*I *1170:B I *C 32.045 47.125 *L 0.00167 *D NAND2XL
*I *1163:B I *C 34.365 49.735 *L 0.00167 *D NAND2XL
*I *1169:B I *C 34.365 47.125 *L 0.00167 *D NAND2XL
*I *1059:B1 I *C 47.995 28.565 *L 0.00268 *D AOI221X1
*I *1138:B1 I *C 54.375 28.855 *L 0.00171 *D AO22XL
*I *1145:B1 I *C 48.575 12.905 *L 0.00283 *D AOI22X1
*I *1136:B1 I *C 39.295 12.905 *L 0.00283 *D AOI22X1
*I *1200:Y O *C 67.135 32.045 *L 0 *D CLKINVX2
*I *1058:A1 I *C 59.305 39.005 *L 0.00278 *D AOI21X1
*I *1147:B0 I *C 61.045 10.875 *L 0.00159 *D AOI22XL
*I *1143:B1 I *C 60.755 57.565 *L 0.00171 *D AO22XL
*I *1060:B1 I *C 67.135 12.905 *L 0.00268 *D AOI221X1

*CAP
1 *391:1 2.36274e-05
2 *391:2 2.36274e-05
3 *391:3 2.20927e-05
4 *391:4 2.20927e-05
5 *391:5 0.000448921
6 *391:6 0.00155941
7 *391:7 4.41853e-05
8 *391:8 0.00151056
9 *391:9 4.41853e-05
10 *391:11 0.000400068
11 *391:13 0.00116126
12 *391:15 0.00201452
13 *391:16 0.000853259
14 *391:18 0.000201499
15 *391:20 0.000201499
16 *391:21 0.000171651
17 *391:22 0.000400519
18 *391:23 0.000228868
19 *391:24 2.51874e-05
20 *391:25 0.000226687
21 *391:26 2.51874e-05
22 *391:27 0.000201499
23 *391:28 0.00166237
24 *391:32 0.00163718
25 *391:33 0.0013446
26 *391:34 0.00151625
27 *391:35 0.000171651
28 *391:36 2.51874e-05
29 *391:37 0.00125632
30 *391:38 2.51874e-05
31 *391:39 0.000125937
32 *391:40 0.00113039
33 *391:42 0.000450456
34 *391:43 0.000102569
35 *391:44 0.000450456
36 *391:45 0.000923125
37 *391:46 0.000144045
38 *391:47 2.11568e-05
39 *391:48 0.000820556
40 *391:49 7.20223e-05
41 *391:50 7.20223e-05
42 *391:51 4.23137e-05
43 *391:52 2.11568e-05
44 *391:53 0.00052512
45 *391:56 2.11568e-05
46 *391:57 2.11568e-05
47 *391:58 0.00052512
48 *391:59 0.00111529
49 *391:61 4.80149e-05
50 *391:62 0.00111529
51 *391:63 0.000696216
52 *391:64 0.000169349
53 *391:65 0.000690947
54 *391:66 0.00218558
55 *391:67 4.23373e-05
56 *391:68 0.000127012
57 *391:69 0.000690947
58 *391:70 0.00153738
59 *391:71 5.52757e-05
60 *391:72 0.000504611
61 *391:73 2.52305e-05
62 *391:74 7.20223e-05
63 *391:75 8.21913e-05
64 *391:76 5.52757e-05
65 *391:77 0.000504611
66 *391:78 2.52305e-05
67 *391:79 7.20223e-05
68 *391:80 8.21913e-05
69 *391:82 2.11687e-05
70 *391:87 2.11687e-05

*RES
1 *391:87 *1060:B1 1.4
2 *391:85 *1143:B1 1.4
3 *391:83 *1147:B0 1.4
4 *391:82 *391:87 0.124289
5 *391:81 *1058:A1 1.4
6 *391:80 *391:85 1.4
7 *391:79 *1200:Y 1.4
8 *391:78 *391:83 1.4
9 *391:77 *391:82 1.4
10 *391:76 *391:81 1.4
11 *391:75 *391:80 0.372866
12 *391:74 *391:79 0.372848
13 *391:73 *391:78 0.124283
14 *391:72 *391:77 2.48565
15 *391:71 *391:76 0.248576
16 *391:70 *391:75 1.4
17 *391:69 *391:74 1.4
18 *391:68 *391:73 1.4
19 *391:67 *391:72 1.4
20 *391:66 *391:71 1.4
21 *391:66 *391:70 7.9542
22 *391:65 *391:69 3.10721
23 *391:64 *391:68 0.745732
24 *391:64 *391:67 0.248578
25 *391:63 *391:66 3.35563
26 *391:63 *391:65 1.4
27 *391:62 *391:64 1.4
28 *391:61 *391:63 0.248565
29 *391:59 *391:62 5.46844
30 *391:58 *391:61 1.4
31 *391:57 *1136:B1 1.4
32 *391:56 *391:59 1.4
33 *391:53 *391:58 2.36148
34 *391:52 *391:57 0.124288
35 *391:51 *391:56 0.124288
36 *391:51 *1145:B1 1.4
37 *391:50 *1138:B1 1.4
38 *391:49 *391:53 1.4
39 *391:48 *391:52 1.4
40 *391:47 *391:51 0.124288
41 *391:46 *391:50 0.372848
42 *391:46 *391:49 0.372848
43 *391:45 *391:48 3.97705
44 *391:45 *391:47 1.4
45 *391:44 *391:46 1.4
46 *391:43 *391:45 0.497131
47 *391:42 *391:44 1.98862
48 *391:40 *391:43 1.4
49 *391:39 *391:42 1.4
50 *391:38 *1059:B1 1.4
51 *391:37 *391:40 6.46298
52 *391:37 *391:39 0.621439
53 *391:36 *391:38 0.124288
54 *391:35 *391:37 1.4
55 *391:34 *391:36 1.4
56 *391:34 *391:35 0.745732
57 *391:33 *391:34 5.84157
58 *391:32 *391:33 1.4
59 *391:28 *391:32 8.0787
60 *391:28 *1169:B 1.4
61 *391:27 *1163:B 1.4
62 *391:26 *1170:B 1.4
63 *391:25 *391:28 0.124288
64 *391:25 *391:27 0.994302
65 *391:24 *391:26 0.124288
66 *391:23 *391:25 1.4
67 *391:22 *391:24 1.4
68 *391:22 *391:23 0.99431
69 *391:21 *391:22 0.745732
70 *391:20 *391:21 1.4
71 *391:18 *391:20 0.994302
72 *391:17 *1148:B1 1.4
73 *391:16 *391:18 1.4
74 *391:15 *391:17 1.4
75 *391:15 *391:16 4.10153
76 *391:13 *391:15 6.09015
77 *391:12 *1140:B0 1.4
78 *391:11 *391:13 1.4
79 *391:9 *391:12 1.4
80 *391:8 *391:11 2.11281
81 *391:8 *1351:A1 1.4
82 *391:7 *391:9 0.248577
83 *391:6 *391:8 5.84129
84 *391:6 *391:7 1.4
85 *391:5 *391:6 2.36137
86 *391:4 *391:5 1.4
87 *391:3 *391:4 0.124289
88 *391:2 *391:3 1.4
89 *391:1 *391:2 0.124283
90 *1134:B0 *391:1 1.4
*END

*D_NET *392 0.00385126

*CONN
*I *1061:B1 I *C 67.425 28.855 *L 0.00282 *D OAI22X1
*I *1200:A I *C 66.555 31.755 *L 0.00521 *D CLKINVX2
*I *1161:B I *C 65.395 47.125 *L 0.00171 *D NOR2XL
*I *1207:Y O *C 65.105 31.175 *L 0 *D NAND2X1

*CAP
1 *392:1 0.000312097
2 *392:2 0.000312097
3 *392:3 8.29136e-05
4 *392:4 8.29136e-05
5 *392:5 7.20223e-05
6 *392:6 7.20223e-05
7 *392:8 0.000110551
8 *392:9 0.000110551
9 *392:10 0.00132041
10 *392:11 0.00127239
11 *392:12 4.80149e-05
12 *392:14 2.76379e-05
13 *392:15 2.76379e-05

*RES
1 *392:16 *1207:Y 1.4
2 *392:15 *392:16 1.4
3 *392:14 *392:15 0.124288
4 *392:12 *392:14 1.4
5 *392:11 *1161:B 1.4
6 *392:10 *392:12 0.248565
7 *392:10 *392:11 6.58698
8 *392:9 *392:10 1.4
9 *392:8 *392:9 0.497153
10 *392:6 *392:8 1.4
11 *392:6 *1200:A 1.4
12 *392:5 *392:6 0.372848
13 *392:4 *392:5 1.4
14 *392:3 *392:4 0.372865
15 *392:2 *392:3 1.4
16 *392:1 *392:2 1.61567
17 *1061:B1 *392:1 1.4
*END

*D_NET *393 0.00369981

*CONN
*I *1122:A1 I *C 54.955 21.025 *L 0.00274 *D OAI21X1
*I *1132:A1 I *C 53.505 23.635 *L 0.00274 *D OAI21X1
*I *1199:Y O *C 51.765 21.605 *L 0 *D CLKINVX2
*I *1158:B I *C 45.965 28.565 *L 0.00175 *D NOR2BXL
*I *1137:A1 I *C 45.385 21.025 *L 0.00274 *D OAI21X1

*CAP
1 *393:1 6.3506e-05
2 *393:2 6.3506e-05
3 *393:3 0.000126153
4 *393:4 0.000201844
5 *393:5 0.000127012
6 *393:6 7.56916e-05
7 *393:7 0.000127012
8 *393:8 6.3506e-05
9 *393:10 6.3506e-05
10 *393:11 7.63094e-05
11 *393:12 0.000589157
12 *393:13 4.23137e-05
13 *393:14 0.000512847
14 *393:15 4.23137e-05
15 *393:16 0.000647809
16 *393:18 0.000584338
17 *393:19 6.34705e-05
18 *393:21 5.12847e-05
19 *393:22 5.12847e-05
20 *393:23 6.34705e-05
21 *393:24 6.34705e-05

*RES
1 *393:24 *1137:A1 1.4
2 *393:23 *393:24 0.372864
3 *393:22 *393:23 1.4
4 *393:21 *393:22 0.248565
5 *393:19 *393:21 1.4
6 *393:18 *1158:B 1.4
7 *393:16 *393:19 0.372864
8 *393:16 *393:18 3.23149
9 *393:15 *1199:Y 1.4
10 *393:14 *393:16 1.4
11 *393:13 *393:15 0.248576
12 *393:12 *393:14 2.48565
13 *393:12 *393:13 1.4
14 *393:11 *393:12 0.372848
15 *393:10 *393:11 1.4
16 *393:8 *393:10 0.372866
17 *393:7 *1132:A1 1.4
18 *393:6 *393:8 1.4
19 *393:5 *393:7 0.745732
20 *393:4 *393:6 0.372848
21 *393:4 *393:5 1.4
22 *393:3 *393:4 0.621413
23 *393:2 *393:3 1.4
24 *393:1 *393:2 0.372866
25 *1122:A1 *393:1 1.4
*END

*D_NET *394 0.0162396

*CONN
*I *1168:B I *C 33.495 54.955 *L 0.00167 *D NAND2XL
*I *1171:B I *C 38.715 52.345 *L 0.00172 *D AND2X1
*I *1167:B I *C 38.425 47.125 *L 0.00172 *D AND2X1
*I *1166:B I *C 38.425 49.735 *L 0.00172 *D AND2X1
*I *1155:B I *C 56.115 41.905 *L 0.00167 *D NAND2XL
*I *1199:A I *C 51.185 21.315 *L 0.00521 *D CLKINVX2
*I *1157:B I *C 50.025 21.025 *L 0.00167 *D NAND2XL
*I *1139:A0 I *C 54.375 16.095 *L 0.00157 *D AOI22XL
*I *1206:Y O *C 51.475 16.385 *L 0 *D CLKAND2X3
*I *1144:A0 I *C 54.375 10.875 *L 0.00157 *D AOI22XL
*I *1136:A1 I *C 38.715 12.615 *L 0.0028 *D AOI22X1

*CAP
1 *394:1 2.51873e-05
2 *394:2 2.51873e-05
3 *394:3 0.000537139
4 *394:4 0.000537139
5 *394:5 0.000251873
6 *394:6 0.000705247
7 *394:7 2.82705e-05
8 *394:8 0.000831185
9 *394:9 2.82705e-05
10 *394:10 5.7217e-05
11 *394:11 0.000377812
12 *394:13 5.7217e-05
13 *394:14 0.0013155
14 *394:16 0.000226687
15 *394:17 0.0013155
16 *394:18 0.000226687
17 *394:20 9.60298e-05
18 *394:22 0.00170854
19 *394:23 0.000359292
20 *394:24 0.00161251
21 *394:25 0.000359292
22 *394:26 0.000102364
23 *394:27 2.40074e-05
24 *394:28 0.000204933
25 *394:29 2.40074e-05
26 *394:30 2.11568e-05
27 *394:31 0.000102569
28 *394:33 0.00033851
29 *394:34 4.23137e-05
30 *394:36 0.000359666
31 *394:37 4.23137e-05
32 *394:38 0.000278977
33 *394:39 4.23137e-05
34 *394:41 0.000278977
35 *394:42 0.00112826
36 *394:43 6.3506e-05
37 *394:44 2.56424e-05
38 *394:45 0.00110262
39 *394:46 0.000444542
40 *394:48 0.000275039
41 *394:50 0.000381036
42 *394:52 0.000275039

*RES
1 *394:52 *1136:A1 1.4
2 *394:50 *1144:A0 1.4
3 *394:48 *394:52 1.61575
4 *394:47 *1206:Y 1.4
5 *394:46 *394:50 2.2372
6 *394:46 *1139:A0 1.4
7 *394:45 *394:48 1.4
8 *394:44 *394:47 1.4
9 *394:43 *394:46 0.372866
10 *394:42 *394:45 5.34415
11 *394:42 *394:44 0.124283
12 *394:41 *394:43 1.4
13 *394:39 *394:42 1.4
14 *394:38 *394:41 1.36711
15 *394:37 *1157:B 1.4
16 *394:36 *394:39 0.248576
17 *394:36 *394:38 1.4
18 *394:34 *394:37 0.248576
19 *394:33 *394:36 1.86432
20 *394:33 *1199:A 1.4
21 *394:31 *394:34 1.4
22 *394:30 *394:33 0.124288
23 *394:29 *1155:B 1.4
24 *394:28 *394:31 0.497131
25 *394:28 *394:30 1.4
26 *394:27 *394:29 0.124283
27 *394:26 *394:28 0.497131
28 *394:25 *394:27 1.4
29 *394:24 *394:26 1.4
30 *394:23 *394:25 1.61575
31 *394:22 *394:24 8.5756
32 *394:22 *394:23 1.4
33 *394:20 *394:22 0.497131
34 *394:18 *1166:B 1.4
35 *394:17 *394:20 1.4
36 *394:16 *1167:B 1.4
37 *394:16 *394:18 1.11859
38 *394:14 *394:17 5.71728
39 *394:13 *394:16 1.4
40 *394:12 *1171:B 1.4
41 *394:11 *394:14 1.4
42 *394:10 *394:13 0.248577
43 *394:9 *394:12 1.4
44 *394:8 *394:11 1.86432
45 *394:8 *394:10 1.4
46 *394:7 *394:9 0.124283
47 *394:6 *394:8 2.23718
48 *394:6 *394:7 1.4
49 *394:5 *394:6 1.24289
50 *394:4 *394:5 1.4
51 *394:3 *394:4 2.36137
52 *394:2 *394:3 1.4
53 *394:1 *394:2 0.124289
54 *1168:B *394:1 1.4
*END

*D_NET *395 0.0248087

*CONN
*I *1146:B1 I *C 47.125 59.885 *L 0.00283 *D AOI22X1
*I *1143:A1 I *C 61.045 57.855 *L 0.00168 *D AO22XL
*I *1162:B I *C 40.165 54.955 *L 0.00167 *D NAND2XL
*I *1187:B I *C 36.105 49.735 *L 0.00167 *D NAND2XL
*I *1165:B I *C 37.555 44.515 *L 0.00172 *D AND2X1
*I *1141:B1 I *C 63.365 39.005 *L 0.00283 *D AOI22X1
*I *1343:AN I *C 48.575 36.395 *L 0.00173 *D NOR2BX2
*I *1138:A1 I *C 54.085 28.565 *L 0.00168 *D AO22XL
*I *1059:A1 I *C 48.575 28.565 *L 0.00268 *D AOI221X1
*I *1145:A1 I *C 47.995 12.615 *L 0.0028 *D AOI22X1
*I *1205:Y O *C 41.905 12.905 *L 0 *D CLKAND2X2
*I *1147:A0 I *C 59.885 10.875 *L 0.00157 *D AOI22XL
*I *1135:B1 I *C 34.655 12.905 *L 0.00283 *D AOI22X1

*CAP
1 *395:2 5.6541e-05
2 *395:3 5.6541e-05
3 *395:4 0.000251873
4 *395:5 0.000251873
5 *395:6 0.00141516
6 *395:7 0.00138689
7 *395:8 2.82705e-05
8 *395:9 7.21692e-05
9 *395:10 0.000176311
10 *395:11 7.21692e-05
11 *395:12 0.000176311
12 *395:14 0.00059368
13 *395:15 0.000989467
14 *395:17 0.000395787
15 *395:19 0.000453373
16 *395:20 0.000881559
17 *395:22 0.000428186
18 *395:23 0.000143042
19 *395:24 0.00125877
20 *395:25 0.00111573
21 *395:26 2.51874e-05
22 *395:27 0.000528936
23 *395:28 2.51874e-05
24 *395:29 0.000528936
25 *395:31 2.86085e-05
26 *395:32 0.00139306
27 *395:33 0.00136445
28 *395:34 0.000201499
29 *395:35 2.40074e-05
30 *395:36 0.000755623
31 *395:37 2.40074e-05
32 *395:38 5.7217e-05
33 *395:39 0.000554124
34 *395:41 5.7217e-05
35 *395:42 0.000508644
36 *395:44 0.000480035
37 *395:45 2.86085e-05
38 *395:47 0.000120037
39 *395:48 0.000125937
40 *395:49 0.000120037
41 *395:50 0.00126035
42 *395:52 2.86085e-05
43 *395:53 0.00121904
44 *395:54 2.86085e-05
45 *395:55 7.69271e-05
46 *395:56 8.46274e-05
47 *395:58 0.000615417
48 *395:59 0.000963496
49 *395:61 6.34705e-05
50 *395:62 0.00053849
51 *395:63 0.000963496
52 *395:64 6.34705e-05
53 *395:65 4.23137e-05
54 *395:66 0.000105843
55 *395:68 8.46274e-05
56 *395:69 0.000105843
57 *395:71 4.23137e-05
58 *395:73 0.000641059
59 *395:74 0.000641059
60 *395:75 4.23137e-05
61 *395:76 4.23137e-05

*RES
1 *395:76 *1135:B1 1.4
2 *395:75 *395:76 0.248576
3 *395:74 *395:75 1.4
4 *395:73 *395:74 3.10707
5 *395:71 *395:73 1.4
6 *395:69 *1147:A0 1.4
7 *395:68 *395:71 0.248576
8 *395:68 *1205:Y 1.4
9 *395:66 *395:69 0.621444
10 *395:65 *395:68 0.248576
11 *395:64 *1145:A1 1.4
12 *395:63 *395:66 1.4
13 *395:62 *395:65 1.4
14 *395:61 *395:64 0.372864
15 *395:59 *395:63 4.72274
16 *395:58 *395:62 2.60994
17 *395:58 *395:61 1.4
18 *395:57 *1059:A1 1.4
19 *395:56 *395:59 1.4
20 *395:55 *395:58 0.372848
21 *395:54 *395:57 1.4
22 *395:53 *395:56 0.497152
23 *395:53 *395:55 1.4
24 *395:52 *395:54 0.124289
25 *395:50 *395:53 6.46298
26 *395:50 *395:52 1.4
27 *395:49 *1138:A1 1.4
28 *395:48 *395:50 0.621439
29 *395:47 *395:49 0.621413
30 *395:45 *395:48 1.4
31 *395:44 *395:47 1.4
32 *395:43 *1343:AN 1.4
33 *395:42 *395:45 0.124289
34 *395:42 *395:44 2.11291
35 *395:41 *395:43 1.4
36 *395:39 *395:42 1.4
37 *395:38 *395:41 0.248577
38 *395:37 *1141:B1 1.4
39 *395:36 *395:39 2.73433
40 *395:36 *395:38 1.4
41 *395:35 *395:37 0.124283
42 *395:34 *395:36 0.994302
43 *395:33 *395:35 1.4
44 *395:32 *395:34 1.4
45 *395:32 *395:33 6.09013
46 *395:31 *395:32 0.124289
47 *395:29 *395:31 1.4
48 *395:28 *1165:B 1.4
49 *395:27 *395:29 2.61004
50 *395:26 *395:28 0.124288
51 *395:25 *395:27 1.4
52 *395:24 *395:26 1.4
53 *395:24 *395:25 4.84726
54 *395:23 *395:24 0.621444
55 *395:22 *395:23 1.4
56 *395:20 *395:22 2.11289
57 *395:20 *1187:B 1.4
58 *395:19 *395:20 2.23719
59 *395:17 *395:19 1.4
60 *395:16 *1162:B 1.4
61 *395:15 *395:17 1.73996
62 *395:15 *395:16 1.4
63 *395:14 *395:15 2.60994
64 *395:12 *395:14 1.4
65 *395:11 *1143:A1 1.4
66 *395:10 *395:12 0.870021
67 *395:9 *395:11 0.372866
68 *395:8 *395:10 1.4
69 *395:7 *395:9 1.4
70 *395:6 *395:8 0.124283
71 *395:6 *395:7 6.21432
72 *395:5 *395:6 1.4
73 *395:4 *395:5 1.24289
74 *395:3 *395:4 1.4
75 *395:2 *395:3 0.248566
76 *395:1 *395:2 1.4
77 *1146:B1 *395:1 1.4
*END

*D_NET *396 0.01288

*CONN
*I *1000:A0 I *C 65.685 23.635 *L 0.00265 *D OAI22X1
*I *1027:A I *C 51.185 26.535 *L 0.00162 *D NOR2XL
*I *1022:B0 I *C 42.485 23.345 *L 0.00262 *D OAI22X1
*I *1198:Y O *C 42.2775 36.975 *L 0 *D CLKINVX1
*I *936:A I *C 43.935 36.685 *L 0.00173 *D OR2X1
*I *1046:A0 I *C 49.445 59.885 *L 0.00271 *D OAI21X1

*CAP
1 *396:2 7.56916e-05
2 *396:3 7.56916e-05
3 *396:4 0.000215945
4 *396:5 0.000215945
5 *396:6 0.00130238
6 *396:7 0.00213202
7 *396:9 0.000858254
8 *396:11 0.000238771
9 *396:12 2.86085e-05
10 *396:13 0.000238771
11 *396:14 0.000755623
12 *396:15 2.56424e-05
13 *396:16 0.000755623
14 *396:17 2.56424e-05
15 *396:18 2.86085e-05
16 *396:20 2.86085e-05
17 *396:22 0.000151125
18 *396:23 0.000208882
19 *396:24 7.38252e-06
20 *396:25 5.03749e-05
21 *396:27 0.000171651
22 *396:28 0.000715212
23 *396:29 0.000543561
24 *396:30 7.55623e-05
25 *396:31 0.00193943
26 *396:32 7.55623e-05
27 *396:33 0.00193943

*RES
1 *396:33 *1046:A0 1.4
2 *396:32 *936:A 1.4
3 *396:31 *396:33 9.57018
4 *396:30 *396:32 0.372863
5 *396:29 *396:31 1.4
6 *396:28 *396:30 1.4
7 *396:28 *396:29 2.36149
8 *396:27 *396:28 0.745732
9 *396:25 *396:27 1.4
10 *396:24 *1198:Y 1.4
11 *396:23 *396:25 0.248575
12 *396:23 *396:24 0.0364292
13 *396:22 *396:23 0.745726
14 *396:20 *396:22 1.4
15 *396:19 *1022:B0 1.4
16 *396:18 *396:20 0.124289
17 *396:17 *396:19 1.4
18 *396:16 *396:18 1.4
19 *396:15 *396:17 0.124283
20 *396:14 *396:16 3.72863
21 *396:13 *396:15 1.4
22 *396:12 *396:14 1.4
23 *396:11 *396:13 1.36717
24 *396:9 *396:12 0.124289
25 *396:9 *396:11 1.4
26 *396:8 *1027:A 1.4
27 *396:7 *396:9 3.60437
28 *396:7 *396:8 1.4
29 *396:6 *396:7 5.84155
30 *396:5 *396:6 1.4
31 *396:4 *396:5 1.24288
32 *396:3 *396:4 1.4
33 *396:2 *396:3 0.372848
34 *396:1 *396:2 1.4
35 *1000:A0 *396:1 1.4
*END

*D_NET *397 0.00985006

*CONN
*I *1198:A I *C 41.905 36.975 *L 0.00273 *D CLKINVX1
*I *1167:A I *C 37.845 47.125 *L 0.00178 *D AND2X1
*I *1170:A I *C 31.465 47.125 *L 0.00157 *D NAND2XL
*I *1188:A I *C 22.185 47.125 *L 0.00178 *D AND2X1
*I *1187:A I *C 36.685 49.735 *L 0.00157 *D NAND2XL
*I *1204:Y O *C 20.735 39.585 *L 0 *D NOR2XL
*I *947:B I *C 21.315 36.7125 *L 0.00178 *D AND3X1
*I *1021:B0 I *C 21.605 26.535 *L 0.00265 *D AOI22X1

*CAP
1 *397:3 0.000906748
2 *397:4 0.000906748
3 *397:5 0.000400519
4 *397:6 0.000400519
5 *397:7 2.51874e-05
6 *397:8 2.51874e-05
7 *397:10 0.000171651
8 *397:11 0.000629387
9 *397:12 0.000226687
10 *397:13 0.00130693
11 *397:14 0.000226687
12 *397:16 0.000943993
13 *397:17 5.7217e-05
14 *397:20 9.47969e-05
15 *397:21 5.7217e-05
16 *397:23 0.000609423
17 *397:25 0.000750059
18 *397:27 2.36992e-05
19 *397:28 0.000140636
20 *397:29 2.36992e-05
21 *397:30 2.36992e-05
22 *397:32 2.36992e-05
23 *397:34 9.13326e-05
24 *397:35 0.000914135
25 *397:37 0.000822802
26 *397:38 2.36992e-05
27 *397:39 2.36992e-05

*RES
1 *397:40 *1021:B0 1.4
2 *397:39 *397:40 1.4
3 *397:38 *397:39 0.124289
4 *397:37 *397:38 1.4
5 *397:35 *397:37 4.36275
6 *397:35 *947:B 1.4
7 *397:34 *397:35 0.484274
8 *397:32 *397:34 1.4
9 *397:31 *1204:Y 1.4
10 *397:30 *397:32 0.124289
11 *397:29 *397:31 1.4
12 *397:28 *397:30 1.4
13 *397:27 *397:29 0.124289
14 *397:25 *397:28 0.745696
15 *397:25 *397:27 1.4
16 *397:24 *1187:A 1.4
17 *397:23 *397:25 3.23135
18 *397:21 *397:24 1.4
19 *397:20 *397:23 1.4
20 *397:19 *1188:A 1.4
21 *397:17 *397:21 0.248577
22 *397:16 *397:20 0.497155
23 *397:16 *397:19 1.4
24 *397:15 *1170:A 1.4
25 *397:14 *397:17 1.4
26 *397:13 *397:16 3.97724
27 *397:13 *397:15 1.4
28 *397:12 *397:14 1.11859
29 *397:11 *397:13 1.98862
30 *397:11 *397:12 1.4
31 *397:10 *397:11 0.745732
32 *397:8 *397:10 1.4
33 *397:8 *1167:A 1.4
34 *397:7 *397:8 0.124288
35 *397:6 *397:7 1.4
36 *397:5 *397:6 1.74004
37 *397:4 *397:5 1.4
38 *397:3 *397:4 4.47436
39 *397:2 *397:3 1.4
40 *397:1 *397:2 1.4
41 *1198:A *397:1 1.4
*END

*D_NET *398 0.00432271

*CONN
*I *1031:A I *C 44.805 18.125 *L 0.00259 *D NOR3X1
*I *1197:Y O *C 46.9175 21.315 *L 0 *D CLKINVX1
*I *1026:B0 I *C 47.995 21.025 *L 0.00277 *D AOI21X1
*I *1343:B I *C 47.995 36.685 *L 0.00538 *D NOR2BX2
*I *935:A I *C 45.675 36.685 *L 0.00173 *D OR2X1

*CAP
1 *398:1 2.11568e-05
2 *398:2 2.11568e-05
3 *398:3 0.000102569
4 *398:4 0.000102569
5 *398:5 0.000126941
6 *398:6 0.000126941
7 *398:7 7.69271e-05
8 *398:8 7.69271e-05
9 *398:9 0.000105784
10 *398:10 0.000126941
11 *398:11 0.00129579
12 *398:12 0.000102569
13 *398:13 6.20114e-06
14 *398:14 0.0013188
15 *398:15 0.000102569
16 *398:17 5.03749e-05
17 *398:18 0.000114434
18 *398:20 0.000114434
19 *398:21 0.000114434
20 *398:23 0.000114434
21 *398:25 5.03749e-05
22 *398:27 5.03749e-05

*RES
1 *398:27 *935:A 1.4
2 *398:25 *398:27 0.248575
3 *398:24 *1343:B 1.4
4 *398:23 *398:25 1.4
5 *398:21 *398:24 1.4
6 *398:20 *398:23 0.497155
7 *398:19 *1026:B0 1.4
8 *398:18 *398:21 0.497155
9 *398:17 *398:20 1.4
10 *398:15 *398:19 1.4
11 *398:14 *398:18 1.4
12 *398:14 *398:17 0.248575
13 *398:13 *1197:Y 1.4
14 *398:12 *398:15 0.497131
15 *398:11 *398:14 6.58726
16 *398:11 *398:13 0.0364293
17 *398:10 *398:12 1.4
18 *398:10 *398:11 0.124288
19 *398:9 *398:10 0.621441
20 *398:8 *398:9 1.4
21 *398:7 *398:8 0.372848
22 *398:6 *398:7 1.4
23 *398:5 *398:6 0.745729
24 *398:4 *398:5 1.4
25 *398:3 *398:4 0.497131
26 *398:2 *398:3 1.4
27 *398:1 *398:2 0.124288
28 *1031:A *398:1 1.4
*END

*D_NET *399 0.0149649

*CONN
*I *1122:B0 I *C 55.535 21.315 *L 0.0028 *D OAI21X1
*I *1197:A I *C 46.545 21.315 *L 0.00273 *D CLKINVX1
*I *1203:Y O *C 22.765 38.715 *L 0 *D AND2X1
*I *1023:A0 I *C 20.445 23.635 *L 0.00264 *D AOI22X1
*I *1189:A I *C 22.765 54.955 *L 0.00157 *D NAND2XL
*I *1168:A I *C 32.915 54.955 *L 0.00157 *D NAND2XL
*I *1169:A I *C 33.785 47.125 *L 0.00157 *D NAND2XL

*CAP
1 *399:2 0.000790177
2 *399:3 0.000790177
3 *399:4 0.000105784
4 *399:5 0.000105784
5 *399:7 0.0020799
6 *399:8 0.0020799
7 *399:9 8.2028e-05
8 *399:10 0.00125544
9 *399:11 0.00117341
10 *399:12 0.000152381
11 *399:13 2.36992e-05
12 *399:14 0.000152381
13 *399:15 2.36992e-05
14 *399:16 2.0507e-05
15 *399:17 0.00131439
16 *399:18 2.0507e-05
17 *399:19 0.00131439
18 *399:22 0.000918422
19 *399:24 0.0010315
20 *399:25 0.000113082
21 *399:27 0.00068006
22 *399:29 0.00068006
23 *399:30 2.86085e-05
24 *399:31 2.86085e-05

*RES
1 *399:32 *1169:A 1.4
2 *399:31 *399:32 1.4
3 *399:30 *399:31 0.124289
4 *399:29 *399:30 1.4
5 *399:27 *399:29 3.35578
6 *399:26 *1168:A 1.4
7 *399:25 *399:27 1.4
8 *399:24 *399:26 1.4
9 *399:24 *399:25 0.497131
10 *399:22 *399:24 4.34997
11 *399:19 *1189:A 1.4
12 *399:19 *399:22 1.4
13 *399:18 *1023:A0 1.4
14 *399:17 *1203:Y 1.4
15 *399:17 *399:19 6.95983
16 *399:16 *399:18 0.124283
17 *399:15 *399:17 1.4
18 *399:14 *399:16 1.4
19 *399:13 *399:15 0.124289
20 *399:12 *399:14 0.870021
21 *399:11 *399:13 1.4
22 *399:10 *399:12 1.4
23 *399:10 *399:11 6.33842
24 *399:9 *399:10 0.497133
25 *399:8 *399:9 1.4
26 *399:7 *399:8 10.3155
27 *399:5 *399:7 1.4
28 *399:4 *1197:A 1.4
29 *399:4 *399:5 0.621441
30 *399:3 *399:4 1.4
31 *399:2 *399:3 3.85276
32 *399:1 *399:2 1.4
33 *1122:B0 *399:1 1.4
*END

*D_NET *400 0.0243847

*CONN
*I *1160:A I *C 65.105 52.635 *L 0.00162 *D NOR2XL
*I *1161:A I *C 65.105 47.415 *L 0.00162 *D NOR2XL
*I *1011:A0 I *C 67.425 47.125 *L 0.00267 *D OAI211X1
*I *1000:B0 I *C 66.845 23.345 *L 0.00262 *D OAI22X1
*I *1004:B0 I *C 56.405 23.345 *L 0.00262 *D OAI22X1
*I *934:A I *C 41.035 36.685 *L 0.00173 *D OR2X1
*I *1192:Y O *C 38.5075 54.665 *L 0 *D CLKINVX1
*I *1002:A0 I *C 17.545 68.005 *L 0.00267 *D OAI211X1
*I *1085:A I *C 12.035 73.515 *L 0.00162 *D NOR2XL

*CAP
1 *400:2 2.73971e-05
2 *400:3 2.73971e-05
3 *400:4 0.000528237
4 *400:5 0.000528237
5 *400:6 2.76379e-05
6 *400:7 0.000248741
7 *400:8 0.000221103
8 *400:9 9.60298e-05
9 *400:10 7.20223e-05
10 *400:11 0.00186962
11 *400:12 9.60298e-05
12 *400:13 7.20223e-05
13 *400:14 0.00186962
14 *400:17 5.04611e-05
15 *400:18 0.00095876
16 *400:20 0.000908299
17 *400:22 0.00105337
18 *400:23 0.00105337
19 *400:25 0.00150218
20 *400:26 0.00175965
21 *400:27 2.51874e-05
22 *400:28 0.000257476
23 *400:29 2.51874e-05
24 *400:30 0.00158681
25 *400:32 0.00172013
26 *400:33 7.3825e-06
27 *400:34 0.000125937
28 *400:36 2.82705e-05
29 *400:37 2.82705e-05
30 *400:38 0.00103268
31 *400:39 0.00103268
32 *400:40 0.00185941
33 *400:41 0.0018815
34 *400:42 0.000448921
35 *400:43 2.20927e-05
36 *400:44 0.000448921
37 *400:46 0.000441853
38 *400:48 0.000441853

*RES
1 *400:49 *1085:A 1.4
2 *400:48 *400:49 1.4
3 *400:46 *400:48 2.48577
4 *400:45 *1002:A0 1.4
5 *400:44 *400:46 1.4
6 *400:43 *400:45 1.4
7 *400:42 *400:44 2.36137
8 *400:41 *400:43 0.124289
9 *400:41 *400:42 1.4
10 *400:40 *400:41 8.94853
11 *400:39 *400:40 1.4
12 *400:38 *400:39 5.09584
13 *400:37 *400:38 1.4
14 *400:36 *400:37 0.124283
15 *400:34 *400:36 1.4
16 *400:33 *1192:Y 1.4
17 *400:32 *400:34 0.621444
18 *400:32 *400:33 0.0364295
19 *400:30 *400:32 7.83014
20 *400:29 *934:A 1.4
21 *400:28 *400:30 1.4
22 *400:27 *400:29 0.124288
23 *400:26 *400:28 1.1186
24 *400:26 *400:27 1.4
25 *400:25 *400:26 6.5873
26 *400:23 *400:25 1.4
27 *400:22 *1004:B0 1.4
28 *400:22 *400:23 5.59278
29 *400:20 *400:22 1.4
30 *400:19 *1000:B0 1.4
31 *400:18 *400:20 4.47418
32 *400:18 *400:19 1.4
33 *400:17 *400:18 0.248565
34 *400:14 *400:17 1.4
35 *400:13 *1011:A0 1.4
36 *400:12 *1161:A 1.4
37 *400:11 *400:14 9.81839
38 *400:10 *400:13 0.372848
39 *400:9 *400:12 0.497131
40 *400:8 *400:11 1.4
41 *400:8 *400:10 1.4
42 *400:7 *400:9 1.4
43 *400:7 *400:8 0.994306
44 *400:6 *400:7 0.124288
45 *400:5 *400:6 1.4
46 *400:4 *400:5 2.73423
47 *400:3 *400:4 1.4
48 *400:2 *400:3 0.124289
49 *400:1 *400:2 1.4
50 *1160:A *400:1 1.4
*END

*D_NET *401 0.0214476

*CONN
*I *1057:A2 I *C 57.855 73.805 *L 0.0017 *D AOI32XL
*I *1043:A0 I *C 57.275 60.175 *L 0.00264 *D AOI22X1
*I *1171:A I *C 39.295 52.345 *L 0.00178 *D AND2X1
*I *1162:A I *C 39.585 54.955 *L 0.00157 *D NAND2XL
*I *1192:A I *C 38.135 54.665 *L 0.00273 *D CLKINVX1
*I *1039:A1 I *C 15.805 58.145 *L 0.00171 *D AOI22XL
*I *949:B I *C 13.775 39.2675 *L 0.00178 *D AND3X1
*I *1196:Y O *C 13.485 42.485 *L 0 *D AND2X1
*I *1023:B0 I *C 19.285 23.345 *L 0.00265 *D AOI22X1
*I *1344:A0N I *C 34.075 21.315 *L 0.00168 *D OAI2BB1X2

*CAP
1 *401:2 2.73971e-05
2 *401:3 2.73971e-05
3 *401:4 0.00113065
4 *401:5 0.00113065
5 *401:6 2.73971e-05
6 *401:7 0.0016518
7 *401:9 0.0016244
8 *401:11 0.000226686
9 *401:12 0.000226686
10 *401:13 0.000113082
11 *401:14 0.00213949
12 *401:15 0.000226686
13 *401:16 0.00202641
14 *401:17 0.000251873
15 *401:18 0.00124614
16 *401:19 2.82705e-05
17 *401:20 0.000226686
18 *401:21 4.72548e-05
19 *401:22 0.00119889
20 *401:23 2.82705e-05
21 *401:24 0.000113082
22 *401:25 0.000201499
23 *401:26 4.41853e-05
24 *401:27 0.000213293
25 *401:29 0.000113082
26 *401:31 4.41853e-05
27 *401:32 0.000236992
28 *401:36 0.000257833
29 *401:37 2.36992e-05
30 *401:40 0.000283293
31 *401:41 2.34394e-05
32 *401:42 0.000473985
33 *401:43 2.546e-05
34 *401:44 2.34394e-05
35 *401:45 0.000473985
36 *401:48 0.00128475
37 *401:49 0.0014283
38 *401:50 2.17687e-05
39 *401:51 0.000143549
40 *401:52 2.17687e-05
41 *401:53 0.00119496
42 *401:55 0.00119496

*RES
1 *401:57 *1344:A0N 1.4
2 *401:55 *401:57 1.4
3 *401:54 *1023:B0 1.4
4 *401:53 *401:55 6.21427
5 *401:52 *401:54 1.4
6 *401:51 *401:53 1.4
7 *401:50 *401:52 0.124289
8 *401:49 *401:51 0.869983
9 *401:49 *401:50 1.4
10 *401:48 *401:49 6.95984
11 *401:45 *401:48 1.4
12 *401:44 *1196:Y 1.4
13 *401:43 *949:B 1.4
14 *401:42 *401:45 2.48577
15 *401:41 *401:44 0.124283
16 *401:40 *401:43 0.134997
17 *401:40 *401:42 1.4
18 *401:37 *401:41 1.4
19 *401:36 *401:40 1.36711
20 *401:35 *1039:A1 1.4
21 *401:34 *1192:A 1.4
22 *401:32 *401:37 0.124289
23 *401:32 *401:36 1.4
24 *401:31 *401:35 1.4
25 *401:29 *401:34 1.4
26 *401:28 *1162:A 1.4
27 *401:27 *401:32 1.1186
28 *401:26 *401:31 0.248577
29 *401:25 *1171:A 1.4
30 *401:24 *401:29 0.497131
31 *401:23 *401:28 1.4
32 *401:22 *401:27 1.4
33 *401:21 *401:26 1.4
34 *401:20 *401:25 0.99431
35 *401:20 *401:24 1.4
36 *401:19 *401:23 0.124283
37 *401:18 *401:22 6.33842
38 *401:18 *401:21 0.248565
39 *401:17 *401:20 0.124289
40 *401:17 *401:19 1.4
41 *401:16 *401:18 1.4
42 *401:15 *401:17 1.1186
43 *401:14 *401:16 9.81854
44 *401:14 *401:15 1.4
45 *401:13 *401:14 0.497131
46 *401:12 *401:13 1.4
47 *401:11 *401:12 1.1186
48 *401:9 *401:11 1.4
49 *401:8 *1043:A0 1.4
50 *401:7 *401:9 7.20851
51 *401:7 *401:8 1.4
52 *401:6 *401:7 0.124289
53 *401:5 *401:6 1.4
54 *401:4 *401:5 5.84157
55 *401:3 *401:4 1.4
56 *401:2 *401:3 0.124289
57 *401:1 *401:2 1.4
58 *1057:A2 *401:1 1.4
*END

*D_NET *402 0.00617125

*CONN
*I *1022:A0 I *C 43.645 23.635 *L 0.00265 *D OAI22X1
*I *1004:A0 I *C 55.245 23.635 *L 0.00265 *D OAI22X1
*I *1025:A I *C 56.115 39.005 *L 0.00162 *D NOR2XL
*I *1164:B I *C 56.115 44.225 *L 0.0028 *D NOR2X1
*I *1191:Y O *C 52.7175 28.565 *L 0 *D CLKINVX1

*CAP
1 *402:1 2.11568e-05
2 *402:2 2.11568e-05
3 *402:3 0.00102137
4 *402:4 0.00102137
5 *402:5 0.00035999
6 *402:6 0.000338821
7 *402:7 2.11687e-05
8 *402:8 0.000331654
9 *402:10 8.29136e-05
10 *402:11 0.000248741
11 *402:12 0.000888275
12 *402:13 2.40074e-05
13 *402:14 0.00132041
14 *402:15 3.10441e-05
15 *402:16 0.000432134
16 *402:18 7.03666e-06

*RES
1 *402:18 *1191:Y 1.4
2 *402:16 *1164:B 1.4
3 *402:15 *402:18 0.0364277
4 *402:14 *1025:A 1.4
5 *402:14 *402:16 2.23709
6 *402:13 *402:15 0.124283
7 *402:12 *402:14 4.59846
8 *402:11 *402:13 1.4
9 *402:10 *402:12 1.4
10 *402:8 *402:11 1.11859
11 *402:8 *402:10 0.372865
12 *402:7 *1004:A0 1.4
13 *402:6 *402:8 1.4
14 *402:5 *402:7 0.124289
15 *402:5 *402:6 1.86429
16 *402:4 *402:5 1.4
17 *402:3 *402:4 4.97131
18 *402:2 *402:3 1.4
19 *402:1 *402:2 0.124288
20 *1022:A0 *402:1 1.4
*END

*D_NET *403 0.0158006

*CONN
*I *1165:A I *C 36.975 44.515 *L 0.00178 *D AND2X1
*I *1166:A I *C 39.005 49.735 *L 0.00178 *D AND2X1
*I *1163:A I *C 34.945 49.735 *L 0.00157 *D NAND2XL
*I *1049:A0 I *C 23.055 49.735 *L 0.00264 *D AOI22X1
*I *1195:Y O *C 22.765 42.775 *L 0 *D NOR2X1
*I *937:A I *C 26.825 41.905 *L 0.00178 *D AND2X1
*I *1021:A0 I *C 22.765 26.245 *L 0.00264 *D AOI22X1
*I *1132:B0 I *C 52.925 23.345 *L 0.0028 *D OAI21X1
*I *1191:A I *C 52.345 28.565 *L 0.00273 *D CLKINVX1

*CAP
1 *403:2 0.000114434
2 *403:3 0.000114434
3 *403:4 0.000453374
4 *403:5 0.000478561
5 *403:6 2.51874e-05
6 *403:7 0.000314693
7 *403:8 8.58254e-05
8 *403:9 0.000314693
9 *403:10 0.00120723
10 *403:12 2.51874e-05
11 *403:13 0.0011688
12 *403:15 2.51874e-05
13 *403:16 2.34394e-05
14 *403:17 4.73985e-05
15 *403:19 2.34394e-05
16 *403:20 0.000585984
17 *403:22 0.000585984
18 *403:23 2.36992e-05
19 *403:24 2.36992e-05
20 *403:25 0.000117197
21 *403:27 0.000117197
22 *403:28 2.36992e-05
23 *403:29 0.000344062
24 *403:30 0.000320363
25 *403:31 0.00121885
26 *403:32 5.03749e-05
27 *403:33 0.00121885
28 *403:34 5.03749e-05
29 *403:35 0.00288876
30 *403:37 0.0028927
31 *403:38 2.36992e-05
32 *403:39 2.76379e-05
33 *403:40 0.00019206
34 *403:42 0.000213106
35 *403:43 0.00019206
36 *403:45 0.000213106
37 *403:46 2.76379e-05
38 *403:48 2.76379e-05

*RES
1 *403:49 *1191:A 1.4
2 *403:48 *403:49 1.4
3 *403:46 *403:48 0.124288
4 *403:45 *1132:B0 1.4
5 *403:43 *403:46 1.4
6 *403:42 *403:45 1.24288
7 *403:41 *1021:A0 1.4
8 *403:40 *403:43 0.994261
9 *403:39 *403:42 1.4
10 *403:38 *403:41 1.4
11 *403:37 *403:40 1.4
12 *403:37 *403:39 0.124288
13 *403:35 *403:38 0.124289
14 *403:35 *403:37 12.6775
15 *403:34 *937:A 1.4
16 *403:33 *403:35 1.4
17 *403:32 *403:34 0.248575
18 *403:31 *403:33 6.4627
19 *403:30 *403:32 1.4
20 *403:29 *403:31 1.4
21 *403:29 *403:30 1.61575
22 *403:28 *403:29 0.124289
23 *403:27 *403:28 1.4
24 *403:25 *403:27 0.621413
25 *403:25 *1195:Y 1.4
26 *403:24 *403:25 1.4
27 *403:23 *403:24 0.124289
28 *403:22 *403:23 1.4
29 *403:20 *403:22 3.10707
30 *403:19 *1049:A0 1.4
31 *403:17 *403:20 1.4
32 *403:16 *403:19 0.124283
33 *403:15 *1163:A 1.4
34 *403:13 *403:17 0.248577
35 *403:13 *403:16 1.4
36 *403:12 *403:15 0.124288
37 *403:11 *1166:A 1.4
38 *403:10 *403:13 5.09584
39 *403:10 *403:12 1.4
40 *403:9 *403:11 1.4
41 *403:8 *403:10 0.372866
42 *403:7 *403:9 1.36718
43 *403:6 *403:8 1.4
44 *403:5 *403:7 1.4
45 *403:5 *403:6 0.124288
46 *403:4 *403:5 2.23718
47 *403:3 *403:4 1.4
48 *403:2 *403:3 0.497155
49 *403:1 *403:2 1.4
50 *1165:A *403:1 1.4
*END

*D_NET *404 0.00153886

*CONN
*I *941:B I *C 15.805 41.9325 *L 0.00178 *D AND3X1
*I *950:B I *C 19.575 41.9325 *L 0.00178 *D AND3X1
*I *1190:Y O *C 24.7125 42.195 *L 0 *D CLKINVX1

*CAP
1 *404:1 2.42476e-06
2 *404:2 2.42476e-06
3 *404:3 0.00030809
4 *404:4 0.000734676
5 *404:5 0.000426586
6 *404:6 2.42476e-06
7 *404:7 2.34394e-05
8 *404:8 2.42476e-06
9 *404:9 2.99054e-05
10 *404:11 6.46603e-06

*RES
1 *404:11 *1190:Y 1.4
2 *404:9 *404:11 0.0342849
3 *404:8 *950:B 1.4
4 *404:7 *404:9 0.124283
5 *404:6 *404:8 0.0128568
6 *404:5 *404:7 1.4
7 *404:4 *404:6 1.4
8 *404:4 *404:5 2.2372
9 *404:3 *404:4 1.61575
10 *404:2 *404:3 1.4
11 *404:1 *404:2 0.0128568
12 *941:B *404:1 1.4
*END

*D_NET *405 0.00118702

*CONN
*I *1061:A1 I *C 66.845 28.855 *L 0.00277 *D OAI22X1
*I *1186:Y O *C 72.065 28.275 *L 0 *D AOI22X1

*CAP
1 *405:1 2.40074e-05
2 *405:2 2.40074e-05
3 *405:3 0.000497482
4 *405:4 0.000497482
5 *405:5 7.20223e-05
6 *405:6 7.20223e-05

*RES
1 *405:6 *1186:Y 1.4
2 *405:5 *405:6 0.372848
3 *405:4 *405:5 1.4
4 *405:3 *405:4 2.23719
5 *405:2 *405:3 1.4
6 *405:1 *405:2 0.124283
7 *1061:A1 *405:1 1.4
*END

*D_NET *406 0.000555892

*CONN
*I *1121:A I *C 18.705 15.805 *L 0.0017 *D MXI2XL
*I *1185:Y O *C 16.095 16.385 *L 0 *D AOI22X1

*CAP
1 *406:1 6.1521e-05
2 *406:2 6.1521e-05
3 *406:3 0.000195918
4 *406:4 0.000195918
5 *406:5 2.0507e-05
6 *406:6 2.0507e-05

*RES
1 *406:6 *1185:Y 1.4
2 *406:5 *406:6 0.124283
3 *406:4 *406:5 1.4
4 *406:3 *406:4 1.1186
5 *406:2 *406:3 1.4
6 *406:1 *406:2 0.37285
7 *1121:A *406:1 1.4
*END

*D_NET *407 0.00113129

*CONN
*I *1121:B I *C 19.87 15.465 *L 0.00164 *D MXI2XL
*I *1184:Y O *C 16.385 11.165 *L 0 *D AOI22X1

*CAP
1 *407:1 3.53569e-07
2 *407:2 0.000283916
3 *407:3 0.000283562
4 *407:4 0.000261224
5 *407:5 0.000261224
6 *407:6 2.0507e-05
7 *407:7 2.0507e-05

*RES
1 *407:7 *1184:Y 1.4
2 *407:6 *407:7 0.124283
3 *407:5 *407:6 1.4
4 *407:4 *407:5 1.49146
5 *407:3 *407:4 1.4
6 *407:2 *407:3 1.71854
7 *407:1 *407:2 0.00214282
8 *1121:B *407:1 1.4
*END

*D_NET *408 0.00148155

*CONN
*I *1120:A I *C 9.135 21.025 *L 0.0017 *D MXI2XL
*I *1183:Y O *C 9.715 11.165 *L 0 *D AOI22X1

*CAP
1 *408:1 0.000697238
2 *408:2 0.000697238
3 *408:3 4.35373e-05
4 *408:4 4.35373e-05

*RES
1 *408:5 *1183:Y 1.4
2 *408:4 *408:5 1.4
3 *408:3 *408:4 0.248578
4 *408:2 *408:3 1.4
5 *408:1 *408:2 4.22563
6 *1120:A *408:1 1.4
*END

*D_NET *409 0.00101482

*CONN
*I *1120:B I *C 7.97 20.685 *L 0.00164 *D MXI2XL
*I *1182:Y O *C 5.365 16.385 *L 0 *D AOI22X1

*CAP
1 *409:1 3.53569e-07
2 *409:2 3.88926e-06
3 *409:3 3.53569e-06
4 *409:4 0.000174149
5 *409:5 0.000174149
6 *409:6 0.000307605
7 *409:7 0.000307605
8 *409:8 2.17687e-05
9 *409:9 2.17687e-05

*RES
1 *409:10 *1182:Y 1.4
2 *409:9 *409:10 1.4
3 *409:8 *409:9 0.124289
4 *409:7 *409:8 1.4
5 *409:6 *409:7 1.86425
6 *409:5 *409:6 1.4
7 *409:4 *409:5 0.99431
8 *409:3 *409:4 1.4
9 *409:2 *409:3 0.0214282
10 *409:1 *409:2 0.00214282
11 *1120:B *409:1 1.4
*END

*D_NET *410 0.000675679

*CONN
*I *1038:A1 I *C 67.715 21.315 *L 0.00279 *D AOI211X1
*I *1181:Y O *C 69.165 24.215 *L 0 *D OAI22X1

*CAP
1 *410:1 0.000211687
2 *410:2 0.000211687
3 *410:3 0.000126153
4 *410:4 0.000126153

*RES
1 *410:5 *1181:Y 1.4
2 *410:4 *410:5 1.4
3 *410:3 *410:4 0.621413
4 *410:2 *410:3 1.4
5 *410:1 *410:2 1.24289
6 *1038:A1 *410:1 1.4
*END

*D_NET *411 0.000615702

*CONN
*I *1129:B I *C 39.005 26.245 *L 0.00171 *D NOR2XL
*I *1180:Y O *C 36.395 26.825 *L 0 *D AOI22X1

*CAP
1 *411:1 5.03749e-05
2 *411:2 5.03749e-05
3 *411:3 0.000257476
4 *411:4 0.000257476

*RES
1 *411:5 *1180:Y 1.4
2 *411:4 *411:5 1.4
3 *411:3 *411:4 1.1186
4 *411:2 *411:3 1.4
5 *411:1 *411:2 0.248575
6 *1129:B *411:1 1.4
*END

*D_NET *412 0.00107937

*CONN
*I *1051:A1 I *C 65.975 18.125 *L 0.00279 *D AOI211X1
*I *1179:Y O *C 69.745 15.225 *L 0 *D OAI22X1

*CAP
1 *412:1 0.000211687
2 *412:2 0.000211687
3 *412:3 0.000327997
4 *412:4 0.000327997

*RES
1 *412:5 *1179:Y 1.4
2 *412:4 *412:5 1.4
3 *412:3 *412:4 1.61567
4 *412:2 *412:3 1.4
5 *412:1 *412:2 1.24289
6 *1051:A1 *412:1 1.4
*END

*D_NET *413 0.00087391

*CONN
*I *1117:A I *C 21.605 15.805 *L 0.0017 *D MXI2XL
*I *1178:Y O *C 20.155 11.165 *L 0 *D AOI22X1

*CAP
1 *413:2 6.5306e-05
2 *413:3 6.5306e-05
3 *413:4 0.000328112
4 *413:5 0.000328112
5 *413:6 4.35373e-05
6 *413:7 4.35373e-05

*RES
1 *413:8 *1178:Y 1.4
2 *413:7 *413:8 1.4
3 *413:6 *413:7 0.248578
4 *413:5 *413:6 1.4
5 *413:4 *413:5 1.98853
6 *413:3 *413:4 1.4
7 *413:2 *413:3 0.372866
8 *413:1 *413:2 1.4
9 *1117:A *413:1 1.4
*END

*D_NET *414 0.000520133

*CONN
*I *1117:B I *C 22.77 15.465 *L 0.00164 *D MXI2XL
*I *1177:Y O *C 25.085 16.675 *L 0 *D AOI22XL

*CAP
1 *414:1 3.53569e-07
2 *414:2 6.54102e-05
3 *414:3 6.50566e-05
4 *414:4 0.000174149
5 *414:5 0.000174149
6 *414:6 2.0507e-05
7 *414:7 2.0507e-05

*RES
1 *414:7 *1177:Y 1.4
2 *414:6 *414:7 0.124283
3 *414:5 *414:6 1.4
4 *414:4 *414:5 0.99431
5 *414:3 *414:4 1.4
6 *414:2 *414:3 0.394278
7 *414:1 *414:2 0.00214282
8 *1117:B *414:1 1.4
*END

*D_NET *415 0.00033023

*CONN
*I *1116:A I *C 14.645 26.245 *L 0.0017 *D MXI2XL
*I *1176:Y O *C 15.805 27.115 *L 0 *D AOI22XL

*CAP
1 *415:2 9.47969e-05
2 *415:3 9.47969e-05
3 *415:4 7.03181e-05
4 *415:5 7.03181e-05

*RES
1 *415:5 *1176:Y 1.4
2 *415:4 *415:5 0.372848
3 *415:3 *415:4 1.4
4 *415:2 *415:3 0.497155
5 *415:1 *415:2 1.4
6 *1116:A *415:1 1.4
*END

*D_NET *416 0.000376534

*CONN
*I *1116:B I *C 13.48 25.905 *L 0.00164 *D MXI2XL
*I *1175:Y O *C 13.195 27.985 *L 0 *D AOI22XL

*CAP
1 *416:1 3.53569e-07
2 *416:2 3.88926e-06
3 *416:3 3.53569e-06
4 *416:4 2.17687e-05
5 *416:5 2.17687e-05
6 *416:6 0.000162609
7 *416:7 0.000162609

*RES
1 *416:7 *1175:Y 1.4
2 *416:6 *416:7 0.869979
3 *416:5 *416:6 1.4
4 *416:4 *416:5 0.124289
5 *416:3 *416:4 1.4
6 *416:2 *416:3 0.0214282
7 *416:1 *416:2 0.00214282
8 *1116:B *416:1 1.4
*END

*D_NET *417 0.000589285

*CONN
*I *1130:B I *C 70.035 13.195 *L 0.00171 *D NOR2XL
*I *1174:Y O *C 72.935 12.615 *L 0 *D AOI22X1

*CAP
1 *417:2 0.000252305
2 *417:3 0.000252305
3 *417:4 4.23373e-05
4 *417:5 4.23373e-05

*RES
1 *417:5 *1174:Y 1.4
2 *417:4 *417:5 0.248578
3 *417:3 *417:4 1.4
4 *417:2 *417:3 1.24283
5 *417:1 *417:2 1.4
6 *1130:B *417:1 1.4
*END

*D_NET *418 0.00188098

*CONN
*I *1124:B I *C 21.315 65.105 *L 0.00175 *D NOR2BXL
*I *1173:A I *C 21.315 63.075 *L 0.00273 *D CLKINVX1
*I *1189:Y O *C 22.185 54.375 *L 0 *D NAND2XL

*CAP
1 *418:1 0.000165392
2 *418:2 0.000165392
3 *418:3 2.20927e-05
4 *418:5 2.20927e-05
5 *418:6 0.000708822
6 *418:7 0.000708822
7 *418:8 4.41853e-05
8 *418:9 4.41853e-05

*RES
1 *418:10 *1189:Y 1.4
2 *418:9 *418:10 1.4
3 *418:8 *418:9 0.248577
4 *418:7 *418:8 1.4
5 *418:6 *418:7 3.72848
6 *418:5 *418:6 1.4
7 *418:3 *418:5 0.124289
8 *418:2 *1173:A 1.4
9 *418:2 *418:3 1.4
10 *418:1 *418:2 0.869979
11 *1124:B *418:1 1.4
*END

*D_NET *419 0.0391177

*CONN
*I *1096:B1 I *C 92.945 78.735 *L 0.00283 *D AOI22X1
*I *1045:C0 I *C 91.205 85.695 *L 0.00166 *D AOI222XL
*I *1071:B1 I *C 90.335 63.075 *L 0.00283 *D AOI22X1
*I *1076:A1 I *C 89.175 52.925 *L 0.0028 *D AOI22X1
*I *1063:B1 I *C 90.335 33.785 *L 0.00283 *D AOI22X1
*I *1104:A1 I *C 61.625 33.495 *L 0.0028 *D AOI22X1
*I *1094:B1 I *C 43.355 47.415 *L 0.00283 *D AOI22X1
*I *1111:A1 I *C 25.375 52.925 *L 0.0028 *D AOI22X1
*I *1042:B1 I *C 48.285 68.295 *L 0.00163 *D AOI222XL
*I *1081:A0 I *C 56.115 83.955 *L 0.00157 *D AOI22XL
*I *1173:Y O *C 20.9425 63.075 *L 0 *D CLKINVX1
*I *1097:A1 I *C 19.285 89.465 *L 0.0028 *D AOI22X1

*CAP
1 *419:1 3.93724e-05
2 *419:2 3.93724e-05
3 *419:3 6.36846e-05
4 *419:4 6.36846e-05
5 *419:5 0.00172795
6 *419:6 0.000433096
7 *419:7 0.00211215
8 *419:8 6.36846e-05
9 *419:9 0.000137696
10 *419:10 0.000817299
11 *419:11 6.36846e-05
12 *419:12 0.000137696
13 *419:13 0.000229494
14 *419:16 0.000229494
15 *419:20 0.00149471
16 *419:22 0.00149471
17 *419:23 0.00234269
18 *419:24 9.52707e-05
19 *419:25 0.00224742
20 *419:26 2.22686e-05
21 *419:28 2.22686e-05
22 *419:29 0.000234922
23 *419:31 0.00200571
24 *419:33 0.00177079
25 *419:35 0.001209
26 *419:37 0.00168756
27 *419:39 0.000478561
28 *419:41 0.00196349
29 *419:43 0.000226164
30 *419:44 0.00198035
31 *419:46 0.00136012
32 *419:48 0.000243019
33 *419:49 0.00136012
34 *419:51 0.000685195
35 *419:52 0.000254434
36 *419:53 0.000685195
37 *419:54 0.00100595
38 *419:55 8.83706e-05
39 *419:56 0.000751512
40 *419:57 2.51873e-05
41 *419:58 8.83706e-05
42 *419:59 0.00120506
43 *419:60 2.51873e-05
44 *419:61 0.000141764
45 *419:62 0.00120506
46 *419:64 0.00218716
47 *419:66 0.00203887
48 *419:67 6.51791e-06
49 *419:68 0.000123745
50 *419:70 0.000123745
51 *419:71 3.94288e-05
52 *419:72 3.94288e-05

*RES
1 *419:72 *1097:A1 1.4
2 *419:71 *419:72 0.248576
3 *419:70 *419:71 1.4
4 *419:68 *419:70 0.745699
5 *419:67 *1173:Y 1.4
6 *419:66 *419:68 1.4
7 *419:64 *419:67 0.0342849
8 *419:64 *419:66 11.5585
9 *419:62 *1081:A0 1.4
10 *419:61 *419:64 0.745696
11 *419:60 *1042:B1 1.4
12 *419:59 *419:62 6.58729
13 *419:58 *419:61 1.4
14 *419:57 *419:60 0.124289
15 *419:56 *419:59 1.4
16 *419:55 *419:58 0.497155
17 *419:54 *419:57 1.4
18 *419:54 *419:56 3.35572
19 *419:53 *419:55 1.4
20 *419:52 *419:54 1.11855
21 *419:51 *419:53 3.6042
22 *419:49 *419:52 1.4
23 *419:48 *419:51 1.4
24 *419:47 *1111:A1 1.4
25 *419:46 *419:49 6.71159
26 *419:44 *419:48 1.36718
27 *419:44 *419:47 1.4
28 *419:43 *419:46 1.4
29 *419:42 *1094:B1 1.4
30 *419:41 *419:44 7.70555
31 *419:41 *419:43 0.994263
32 *419:40 *419:42 1.4
33 *419:39 *419:41 1.4
34 *419:37 *419:40 1.4
35 *419:37 *419:39 2.36147
36 *419:36 *1104:A1 1.4
37 *419:35 *419:37 5.96581
38 *419:34 *419:36 1.4
39 *419:33 *419:35 1.4
40 *419:32 *419:34 1.4
41 *419:31 *419:33 7.83017
42 *419:31 *419:32 1.4
43 *419:29 *419:31 1.05645
44 *419:28 *1063:B1 1.4
45 *419:27 *419:29 1.4
46 *419:26 *419:28 0.124288
47 *419:25 *419:27 1.4
48 *419:24 *419:26 1.4
49 *419:23 *419:25 10.7507
50 *419:23 *419:24 0.497131
51 *419:22 *419:23 1.4
52 *419:20 *419:22 8.32727
53 *419:19 *1076:A1 1.4
54 *419:16 *419:20 1.4
55 *419:16 *419:19 1.4
56 *419:15 *1071:B1 1.4
57 *419:14 *1045:C0 1.4
58 *419:13 *419:16 1.24289
59 *419:12 *419:15 1.4
60 *419:11 *419:14 1.4
61 *419:10 *419:13 1.4
62 *419:9 *419:12 0.745732
63 *419:8 *419:11 0.372866
64 *419:7 *419:10 4.34996
65 *419:7 *419:9 1.4
66 *419:6 *419:8 1.4
67 *419:5 *419:7 6.95993
68 *419:5 *419:6 2.73422
69 *419:4 *419:5 1.4
70 *419:3 *419:4 0.372866
71 *419:2 *419:3 1.4
72 *419:1 *419:2 0.248565
73 *1096:B1 *419:1 1.4
*END

*D_NET *420 0.0351392

*CONN
*I *1110:A1 I *C 86.855 38.715 *L 0.0028 *D AOI22X1
*I *1076:B1 I *C 88.595 52.635 *L 0.00283 *D AOI22X1
*I *1052:C0 I *C 90.625 68.585 *L 0.00166 *D AOI222XL
*I *1095:A0 I *C 82.215 78.735 *L 0.00157 *D AOI22XL
*I *1102:A0 I *C 66.555 80.765 *L 0.00157 *D AOI22XL
*I *1084:B1 I *C 38.715 80.765 *L 0.00283 *D AOI22X1
*I *1047:C0 I *C 28.565 80.475 *L 0.00166 *D AOI222XL
*I *1348:B1 I *C 19.575 78.445 *L 0.00171 *D AO22XL
*I *1115:A1 I *C 19.285 54.375 *L 0.0028 *D AOI22X1
*I *1188:Y O *C 22.765 47.705 *L 0 *D AND2X1
*I *1349:B1 I *C 46.835 42.195 *L 0.00283 *D AOI22X1
*I *1104:B1 I *C 62.205 33.785 *L 0.00283 *D AOI22X1

*CAP
1 *420:1 0.00097982
2 *420:2 0.00097982
3 *420:3 0.000142906
4 *420:4 0.000166724
5 *420:5 2.38177e-05
6 *420:6 9.06987e-05
7 *420:7 0.00135167
8 *420:8 9.06987e-05
9 *420:9 0.00137503
10 *420:11 2.33514e-05
11 *420:12 0.000137696
12 *420:13 0.000527836
13 *420:14 0.000137696
14 *420:15 0.000527836
15 *420:16 2.33514e-05
16 *420:17 0.000811801
17 *420:18 2.33514e-05
18 *420:19 0.000949605
19 *420:21 0.000137803
20 *420:23 0.0012718
21 *420:25 0.00365617
22 *420:28 0.0032727
23 *420:31 0.00156811
24 *420:33 2.05677e-05
25 *420:34 0.00067978
26 *420:35 2.05677e-05
27 *420:36 0.000157715
28 *420:38 0.00211683
29 *420:40 0.00245276
30 *420:41 2.20927e-05
31 *420:42 0.000493637
32 *420:43 2.20927e-05
33 *420:44 0.000260692
34 *420:46 0.000355488
35 *420:48 9.47969e-05
36 *420:49 4.68787e-05
37 *420:50 0.000468787
38 *420:51 4.68787e-05
39 *420:52 0.000468787
40 *420:54 0.00213743
41 *420:55 0.00222325
42 *420:56 8.58254e-05
43 *420:57 0.000705248
44 *420:58 2.51874e-05
45 *420:59 0.000705248
46 *420:60 2.51874e-05
47 *420:61 0.00156859
48 *420:63 0.00156859
49 *420:64 4.80149e-05
50 *420:65 4.80149e-05

*RES
1 *420:65 *1104:B1 1.4
2 *420:64 *420:65 0.248565
3 *420:63 *420:64 1.4
4 *420:61 *420:63 6.96015
5 *420:60 *1349:B1 1.4
6 *420:59 *420:61 1.4
7 *420:58 *420:60 0.124288
8 *420:57 *420:59 3.48006
9 *420:56 *420:58 1.4
10 *420:55 *420:57 1.4
11 *420:55 *420:56 0.372866
12 *420:54 *420:55 9.44594
13 *420:52 *420:54 1.4
14 *420:51 *1188:Y 1.4
15 *420:50 *420:52 2.48565
16 *420:49 *420:51 0.248565
17 *420:48 *420:50 1.4
18 *420:46 *420:49 1.4
19 *420:46 *420:48 0.497155
20 *420:45 *1115:A1 1.4
21 *420:44 *420:46 1.36718
22 *420:43 *420:45 1.4
23 *420:42 *420:44 1.4
24 *420:41 *420:43 0.124289
25 *420:40 *420:42 2.60994
26 *420:40 *420:41 1.4
27 *420:38 *420:40 10.3155
28 *420:38 *1348:B1 1.4
29 *420:36 *420:38 0.994302
30 *420:35 *1047:C0 1.4
31 *420:34 *420:36 1.4
32 *420:33 *420:35 0.124283
33 *420:31 *420:34 3.85277
34 *420:31 *420:33 1.4
35 *420:30 *1084:B1 1.4
36 *420:28 *420:31 4.3499
37 *420:28 *420:30 1.4
38 *420:27 *1102:A0 1.4
39 *420:25 *420:28 11.9314
40 *420:25 *420:27 1.4
41 *420:24 *1095:A0 1.4
42 *420:23 *420:25 6.71159
43 *420:22 *420:24 1.4
44 *420:21 *420:23 1.4
45 *420:19 *420:22 1.4
46 *420:19 *420:21 0.869979
47 *420:18 *1052:C0 1.4
48 *420:17 *420:19 4.34996
49 *420:16 *420:18 0.124285
50 *420:15 *420:17 1.4
51 *420:14 *420:16 1.4
52 *420:13 *420:15 2.85864
53 *420:12 *420:14 0.745732
54 *420:11 *420:13 1.4
55 *420:9 *420:12 1.4
56 *420:9 *420:11 0.124285
57 *420:8 *1076:B1 1.4
58 *420:7 *420:9 7.20851
59 *420:6 *420:8 0.497146
60 *420:5 *420:7 1.4
61 *420:4 *420:6 1.4
62 *420:4 *420:5 0.124283
63 *420:3 *420:4 0.745696
64 *420:2 *420:3 1.4
65 *420:1 *420:2 5.46866
66 *1110:A1 *420:1 1.4
*END

*D_NET *421 0.00202763

*CONN
*I *1066:B0 I *C 36.685 57.565 *L 0.00162 *D OAI22XL
*I *1172:A I *C 36.685 54.665 *L 0.00273 *D CLKINVX1
*I *1187:Y O *C 36.105 49.155 *L 0 *D NAND2XL

*CAP
1 *421:2 0.000113082
2 *421:3 0.000113082
3 *421:4 0.000251873
4 *421:5 0.000730434
5 *421:6 0.000113082
6 *421:7 0.00047856
7 *421:8 0.000113082
8 *421:9 5.7217e-05
9 *421:11 5.7217e-05

*RES
1 *421:13 *1187:Y 1.4
2 *421:11 *421:13 1.4
3 *421:10 *1172:A 1.4
4 *421:9 *421:11 0.248577
5 *421:8 *421:10 1.4
6 *421:7 *421:9 1.4
7 *421:6 *421:8 0.497131
8 *421:5 *421:7 2.36148
9 *421:5 *421:6 1.4
10 *421:4 *421:5 1.24289
11 *421:3 *421:4 1.4
12 *421:2 *421:3 0.497131
13 *421:1 *421:2 1.4
14 *1066:B0 *421:1 1.4
*END

*D_NET *422 0.0248695

*CONN
*I *1100:A1 I *C 92.945 42.485 *L 0.0028 *D AOI22X1
*I *1346:C1 I *C 86.275 49.445 *L 0.00176 *D AOI222XL
*I *1079:B1 I *C 85.115 57.855 *L 0.00283 *D AOI22X1
*I *1089:B1 I *C 57.565 57.855 *L 0.00283 *D AOI22X1
*I *1099:B1 I *C 89.755 78.735 *L 0.00283 *D AOI22X1
*I *1172:Y O *C 36.3125 54.665 *L 0 *D CLKINVX1
*I *1086:B1 I *C 35.525 80.765 *L 0.00283 *D AOI22X1
*I *1111:B1 I *C 25.955 52.635 *L 0.00283 *D AOI22X1
*I *1350:B1 I *C 32.625 81.055 *L 0.00171 *D AO22XL

*CAP
1 *422:1 6.68059e-05
2 *422:2 6.68059e-05
3 *422:3 0.000547806
4 *422:4 0.000547806
5 *422:5 0.000601254
6 *422:6 0.00126816
7 *422:7 0.000666905
8 *422:9 0.000183595
9 *422:10 9.17977e-05
10 *422:11 0.00259
11 *422:12 0.00165612
12 *422:14 0.00457406
13 *422:15 0.00165612
14 *422:18 0.0021324
15 *422:19 0.000169826
16 *422:21 0.000277061
17 *422:22 5.6541e-05
18 *422:23 0.000169826
19 *422:24 0.000503747
20 *422:25 0.00199167
21 *422:26 1.96862e-05
22 *422:27 2.82705e-05
23 *422:28 0.000226686
24 *422:29 0.00199167
25 *422:30 1.96862e-05
26 *422:31 2.82705e-05
27 *422:32 0.000998842
28 *422:33 0.000253809
29 *422:35 6.94823e-06
30 *422:36 0.000998842
31 *422:37 4.11354e-05
32 *422:38 0.000253809
33 *422:39 6.94823e-06
34 *422:40 4.71608e-05
35 *422:41 4.11354e-05
36 *422:42 2.05677e-05
37 *422:44 4.71608e-05
38 *422:46 2.05677e-05

*RES
1 *422:46 *1350:B1 1.4
2 *422:44 *1111:B1 1.4
3 *422:42 *422:46 0.124283
4 *422:41 *1086:B1 1.4
5 *422:40 *422:44 0.248565
6 *422:39 *1172:Y 1.4
7 *422:38 *422:42 1.4
8 *422:37 *422:41 0.248565
9 *422:36 *422:40 1.4
10 *422:35 *422:39 0.0342866
11 *422:33 *422:38 1.24283
12 *422:33 *422:37 1.4
13 *422:32 *422:36 4.35011
14 *422:31 *422:35 1.4
15 *422:30 *1099:B1 1.4
16 *422:29 *422:33 1.4
17 *422:28 *422:32 1.4
18 *422:27 *422:31 0.124283
19 *422:26 *422:30 0.124283
20 *422:25 *422:29 10.0673
21 *422:24 *422:28 1.1186
22 *422:24 *422:27 1.4
23 *422:23 *422:26 1.4
24 *422:22 *422:25 1.4
25 *422:21 *422:24 1.36718
26 *422:19 *422:23 0.99431
27 *422:18 *422:22 0.248566
28 *422:18 *422:21 1.4
29 *422:17 *1089:B1 1.4
30 *422:15 *422:19 1.4
31 *422:14 *422:18 9.19704
32 *422:14 *422:17 1.4
33 *422:13 *1079:B1 1.4
34 *422:12 *422:15 8.8242
35 *422:11 *422:14 11.8074
36 *422:11 *422:13 1.4
37 *422:10 *422:12 1.4
38 *422:9 *422:11 0.497155
39 *422:9 *422:10 0.497155
40 *422:7 *422:9 1.4
41 *422:6 *1346:C1 1.4
42 *422:6 *422:7 3.60428
43 *422:5 *422:6 3.35577
44 *422:4 *422:5 1.4
45 *422:3 *422:4 2.8585
46 *422:2 *422:3 1.4
47 *422:1 *422:2 0.372863
48 *1100:A1 *422:1 1.4
*END

*D_NET *423 0.000359466

*CONN
*I *1153:A I *C 32.335 49.445 *L 0.00273 *D CLKINVX1
*I *1170:Y O *C 32.045 47.705 *L 0 *D NAND2XL

*CAP
1 *423:1 0.000151125
2 *423:2 0.000151125
3 *423:3 2.86085e-05
4 *423:4 2.86085e-05

*RES
1 *423:5 *1170:Y 1.4
2 *423:4 *423:5 1.4
3 *423:3 *423:4 0.124289
4 *423:2 *423:3 1.4
5 *423:1 *423:2 0.745726
6 *1153:A *423:1 1.4
*END

*D_NET *424 0.000164809

*CONN
*I *1152:A I *C 34.945 47.415 *L 0.00273 *D CLKINVX1
*I *1169:Y O *C 34.365 47.705 *L 0 *D NAND2XL

*CAP
1 *424:2 5.7217e-05
2 *424:3 5.7217e-05
3 *424:4 2.51874e-05
4 *424:5 2.51874e-05

*RES
1 *424:5 *1169:Y 1.4
2 *424:4 *424:5 0.124288
3 *424:3 *424:4 1.4
4 *424:2 *424:3 0.248577
5 *424:1 *424:2 1.4
6 *1152:A *424:1 1.4
*END

*D_NET *425 0.000943744

*CONN
*I *1150:A I *C 36.105 52.635 *L 0.00273 *D CLKINVX1
*I *1163:Y O *C 34.365 49.155 *L 0 *D NAND2XL

*CAP
1 *425:1 2.51873e-05
2 *425:2 2.51873e-05
3 *425:3 0.000169623
4 *425:4 0.000169623
5 *425:5 0.000277062
6 *425:6 0.000277062

*RES
1 *425:6 *1163:Y 1.4
2 *425:5 *425:6 1.36717
3 *425:4 *425:5 1.4
4 *425:3 *425:4 0.745697
5 *425:2 *425:3 1.4
6 *425:1 *425:2 0.124289
7 *1150:A *425:1 1.4
*END

*D_NET *426 0.000364955

*CONN
*I *1149:A I *C 40.745 54.665 *L 0.00521 *D INVX2
*I *1162:Y O *C 40.165 54.375 *L 0 *D NAND2XL

*CAP
1 *426:1 7.5562e-05
2 *426:2 7.5562e-05
3 *426:3 5.6541e-05
4 *426:4 5.6541e-05
5 *426:5 5.03747e-05
6 *426:6 5.03747e-05

*RES
1 *426:6 *1162:Y 1.4
2 *426:5 *426:6 0.248578
3 *426:4 *426:5 1.4
4 *426:3 *426:4 0.248566
5 *426:2 *426:3 1.4
6 *426:1 *426:2 0.372866
7 *1149:A *426:1 1.4
*END

*D_NET *427 0.000708174

*CONN
*I *1038:B0 I *C 67.425 21.315 *L 0.00278 *D AOI211X1
*I *1159:Y O *C 70.035 20.735 *L 0 *D NOR2XL

*CAP
1 *427:1 4.23373e-05
2 *427:2 4.23373e-05
3 *427:3 0.000227075
4 *427:4 0.000227075
5 *427:5 8.46747e-05
6 *427:6 8.46747e-05

*RES
1 *427:6 *1159:Y 1.4
2 *427:5 *427:6 0.497155
3 *427:4 *427:5 1.4
4 *427:3 *427:4 1.11854
5 *427:2 *427:3 1.4
6 *427:1 *427:2 0.248578
7 *1038:B0 *427:1 1.4
*END

*D_NET *428 0.00024537

*CONN
*I *1059:C0 I *C 47.415 28.855 *L 0.00277 *D AOI221X1
*I *1158:Y O *C 46.22 28.795 *L 0 *D NOR2BXL

*CAP
1 *428:2 0.000114434
2 *428:3 0.000114434
3 *428:4 5.21119e-06
4 *428:5 8.25106e-06
5 *428:6 3.03986e-06

*RES
1 *428:6 *1158:Y 1.4
2 *428:5 *428:6 0.0150002
3 *428:4 *428:5 0.0257147
4 *428:3 *428:4 1.4
5 *428:2 *428:3 0.497155
6 *428:1 *428:2 1.4
7 *1059:C0 *428:1 1.4
*END

*D_NET *429 0.000298737

*CONN
*I *1026:A0 I *C 48.575 21.315 *L 0.00265 *D AOI21X1
*I *1157:Y O *C 50.025 21.605 *L 0 *D NAND2XL

*CAP
1 *429:2 0.000128212
2 *429:3 0.000128212
3 *429:4 2.11568e-05
4 *429:5 2.11568e-05

*RES
1 *429:5 *1157:Y 1.4
2 *429:4 *429:5 0.124288
3 *429:3 *429:4 1.4
4 *429:2 *429:3 0.621413
5 *429:1 *429:2 1.4
6 *1026:A0 *429:1 1.4
*END

*D_NET *430 0.000841591

*CONN
*I *1051:B0 I *C 65.685 18.125 *L 0.00278 *D AOI211X1
*I *1156:Y O *C 70.035 18.705 *L 0 *D NOR2XL

*CAP
1 *430:1 2.11687e-05
2 *430:2 2.11687e-05
3 *430:3 0.000378458
4 *430:4 0.000378458
5 *430:5 2.11687e-05
6 *430:6 2.11687e-05

*RES
1 *430:6 *1156:Y 1.4
2 *430:5 *430:6 0.124289
3 *430:4 *430:5 1.4
4 *430:3 *430:4 1.86424
5 *430:2 *430:3 1.4
6 *430:1 *430:2 0.124289
7 *1051:B0 *430:1 1.4
*END

*D_NET *431 0.000420423

*CONN
*I *1142:B0 I *C 57.565 42.195 *L 0.0028 *D OAI21X1
*I *1155:Y O *C 56.115 42.485 *L 0 *D NAND2XL

*CAP
1 *431:1 4.80149e-05
2 *431:2 4.80149e-05
3 *431:3 0.000138189
4 *431:4 0.000138189
5 *431:5 2.40074e-05
6 *431:6 2.40074e-05

*RES
1 *431:6 *1155:Y 1.4
2 *431:5 *431:6 0.124283
3 *431:4 *431:5 1.4
4 *431:3 *431:4 0.621441
5 *431:2 *431:3 1.4
6 *431:1 *431:2 0.248565
7 *1142:B0 *431:1 1.4
*END

*D_NET *432 0.000648759

*CONN
*I *1137:B0 I *C 44.805 21.315 *L 0.0028 *D OAI21X1
*I *1154:Y O *C 41.615 21.895 *L 0 *D NAND2BX1

*CAP
1 *432:1 2.11568e-05
2 *432:2 2.11568e-05
3 *432:3 0.000282066
4 *432:4 0.000282066
5 *432:5 2.11568e-05
6 *432:6 2.11568e-05

*RES
1 *432:6 *1154:Y 1.4
2 *432:5 *432:6 0.124288
3 *432:4 *432:5 1.4
4 *432:3 *432:4 1.36711
5 *432:2 *432:3 1.4
6 *432:1 *432:2 0.124288
7 *1137:B0 *432:1 1.4
*END

*D_NET *433 0.0282093

*CONN
*I *1082:A1 I *C 63.655 85.695 *L 0.0028 *D AOI22X1
*I *1006:A1 I *C 75.255 91.205 *L 0.00268 *D AOI221X1
*I *1090:A1 I *C 78.735 85.695 *L 0.0028 *D AOI22X1
*I *1074:A1 I *C 72.355 64.815 *L 0.0028 *D AOI22X1
*I *1075:B1 I *C 79.315 63.075 *L 0.00283 *D AOI22X1
*I *1005:B1 I *C 54.665 59.885 *L 0.00268 *D AOI221X1
*I *1108:A1 I *C 67.425 52.925 *L 0.0028 *D AOI22X1
*I *1092:A1 I *C 48.285 54.375 *L 0.0028 *D AOI22X1
*I *1171:Y O *C 39.875 52.925 *L 0 *D AND2X1
*I *1064:B1 I *C 12.905 59.885 *L 0.00283 *D AOI22X1
*I *1347:B1 I *C 12.905 83.665 *L 0.00171 *D AO22XL
*I *1345:B1 I *C 14.355 89.175 *L 0.00268 *D AOI221X1

*CAP
1 *433:2 0.000973057
2 *433:3 0.000973057
3 *433:4 0.000429879
4 *433:5 0.000388938
5 *433:6 4.09408e-05
6 *433:8 0.00028727
7 *433:9 0.00028727
8 *433:10 0.00158784
9 *433:11 3.93724e-05
10 *433:12 0.00154847
11 *433:14 0.000619014
12 *433:15 2.29494e-05
13 *433:16 0.00106181
14 *433:17 0.000140108
15 *433:19 0.000465751
16 *433:20 0.000140108
17 *433:22 0.000360846
18 *433:23 2.29494e-05
19 *433:24 0.000360846
20 *433:25 2.29494e-05
21 *433:26 0.00123287
22 *433:28 2.73971e-05
23 *433:29 0.00123287
24 *433:31 0.000625466
25 *433:32 4.81128e-05
26 *433:33 2.73971e-05
27 *433:34 0.000625466
28 *433:35 4.81128e-05
29 *433:36 0.00052924
30 *433:37 2.73971e-05
31 *433:39 0.00052924
32 *433:40 2.73971e-05
33 *433:41 0.00058713
34 *433:43 0.00140697
35 *433:45 2.51873e-05
36 *433:46 0.000848115
37 *433:47 2.51873e-05
38 *433:48 0.000100749
39 *433:49 2.82705e-05
40 *433:51 0.000100749
41 *433:52 0.000503747
42 *433:54 0.000503747
43 *433:55 0.00231979
44 *433:56 0.00231979
45 *433:57 0.00186506
46 *433:58 0.00223963
47 *433:60 0.000374574
48 *433:62 0.00010312
49 *433:63 0.00010312

*RES
1 *433:64 *1345:B1 1.4
2 *433:63 *433:64 1.4
3 *433:62 *433:63 0.621415
4 *433:60 *433:62 1.4
5 *433:58 *1347:B1 1.4
6 *433:58 *433:60 2.36147
7 *433:57 *1064:B1 1.4
8 *433:57 *433:58 10.1913
9 *433:56 *433:57 1.4
10 *433:55 *433:56 11.4343
11 *433:54 *433:55 1.4
12 *433:52 *433:54 2.48577
13 *433:51 *1171:Y 1.4
14 *433:49 *433:52 1.4
15 *433:48 *433:51 0.497155
16 *433:47 *1092:A1 1.4
17 *433:46 *433:49 0.124283
18 *433:46 *433:48 1.4
19 *433:45 *433:47 0.124289
20 *433:43 *433:46 3.6042
21 *433:43 *433:45 1.4
22 *433:42 *1108:A1 1.4
23 *433:41 *433:43 2.60998
24 *433:40 *433:42 1.4
25 *433:39 *433:41 1.4
26 *433:37 *433:40 0.124289
27 *433:36 *433:39 2.73435
28 *433:35 *1005:B1 1.4
29 *433:34 *433:37 1.4
30 *433:33 *433:36 1.4
31 *433:32 *433:35 0.248578
32 *433:31 *433:34 3.23151
33 *433:29 *433:33 0.124289
34 *433:29 *433:32 1.4
35 *433:28 *433:31 1.4
36 *433:27 *1075:B1 1.4
37 *433:26 *433:29 5.4687
38 *433:26 *433:28 0.124289
39 *433:25 *433:27 1.4
40 *433:24 *433:26 1.4
41 *433:23 *433:25 0.124289
42 *433:22 *433:24 1.86433
43 *433:20 *433:23 1.4
44 *433:19 *433:22 1.4
45 *433:18 *1074:A1 1.4
46 *433:17 *433:20 0.745707
47 *433:16 *433:19 2.11291
48 *433:16 *433:18 1.4
49 *433:15 *433:17 1.4
50 *433:14 *433:16 2.73435
51 *433:14 *433:15 0.124289
52 *433:12 *433:14 1.4
53 *433:11 *1090:A1 1.4
54 *433:10 *433:12 8.69987
55 *433:10 *433:11 0.248565
56 *433:9 *433:10 1.4
57 *433:8 *433:9 1.49146
58 *433:6 *433:8 1.4
59 *433:5 *1006:A1 1.4
60 *433:4 *433:6 0.248576
61 *433:4 *433:5 2.36147
62 *433:3 *433:4 1.4
63 *433:2 *433:3 4.97155
64 *433:1 *433:2 1.4
65 *1082:A1 *433:1 1.4
*END

*D_NET *434 0.0306035

*CONN
*I *1110:B1 I *C 86.275 39.005 *L 0.00283 *D AOI22X1
*I *1346:A1 I *C 84.535 49.445 *L 0.00162 *D AOI222XL
*I *1095:B0 I *C 81.055 78.735 *L 0.00159 *D AOI22XL
*I *1067:B1 I *C 79.315 70.325 *L 0.00283 *D AOI22X1
*I *1102:B0 I *C 65.395 80.765 *L 0.00159 *D AOI22XL
*I *1081:B0 I *C 57.275 83.955 *L 0.00159 *D AOI22XL
*I *1042:C0 I *C 49.155 68.585 *L 0.00166 *D AOI222XL
*I *1153:Y O *C 32.7075 49.445 *L 0 *D CLKINVX1
*I *1126:B I *C 50.315 47.125 *L 0.00172 *D AND2X1
*I *1115:B1 I *C 19.865 54.665 *L 0.00283 *D AOI22X1
*I *1040:A1 I *C 21.025 68.585 *L 0.00163 *D AOI21XL
*I *1106:B1 I *C 21.895 78.735 *L 0.00283 *D AOI22X1

*CAP
1 *434:1 2.22686e-05
2 *434:2 2.22686e-05
3 *434:3 0.000119088
4 *434:4 0.000119088
5 *434:5 0.00082394
6 *434:6 0.00244825
7 *434:7 0.00162431
8 *434:8 2.38177e-05
9 *434:9 0.000298342
10 *434:10 2.38177e-05
11 *434:11 0.000298342
12 *434:13 9.34056e-05
13 *434:15 0.000718396
14 *434:16 0.00078248
15 *434:17 0.000137696
16 *434:18 0.00015749
17 *434:20 0.000137696
18 *434:21 0.00128419
19 *434:22 4.67028e-05
20 *434:23 0.00196533
21 *434:24 4.67028e-05
22 *434:25 2.04704e-05
23 *434:26 0.00068114
24 *434:28 2.04704e-05
25 *434:29 0.000204704
26 *434:30 0.000976301
27 *434:32 0.000204704
28 *434:33 0.000976301
29 *434:35 0.000776289
30 *434:36 0.00080456
31 *434:37 2.51873e-05
32 *434:38 2.82705e-05
33 *434:39 2.51873e-05
34 *434:40 0.00171274
35 *434:42 0.00171274
36 *434:43 0.00177373
37 *434:44 0.000171651
38 *434:45 0.0016879
39 *434:46 0.000176312
40 *434:47 2.51874e-05
41 *434:48 8.58254e-05
42 *434:49 0.000176312
43 *434:50 3.257e-05
44 *434:51 0.00047856
45 *434:52 2.86085e-05
46 *434:53 7.38252e-06
47 *434:54 0.00047856
48 *434:55 2.86085e-05
49 *434:57 0.000915803
50 *434:59 0.00102627
51 *434:61 0.00113412
52 *434:62 0.000110463
53 *434:63 0.00195521
54 *434:65 0.00082109
55 *434:66 2.20927e-05
56 *434:68 4.12482e-05
57 *434:69 2.20927e-05
58 *434:70 4.12482e-05

*RES
1 *434:72 *1106:B1 1.4
2 *434:71 *1040:A1 1.4
3 *434:70 *434:72 1.4
4 *434:69 *434:71 1.4
5 *434:68 *434:70 0.248566
6 *434:66 *434:69 0.124289
7 *434:65 *434:68 1.4
8 *434:64 *1115:B1 1.4
9 *434:63 *434:66 1.4
10 *434:63 *434:65 4.3499
11 *434:62 *434:64 1.4
12 *434:61 *434:63 5.96557
13 *434:59 *434:62 0.621444
14 *434:59 *434:61 1.4
15 *434:58 *1126:B 1.4
16 *434:57 *434:59 4.47428
17 *434:55 *434:58 1.4
18 *434:54 *434:57 1.4
19 *434:53 *1153:Y 1.4
20 *434:52 *434:55 0.124289
21 *434:51 *434:54 2.36148
22 *434:50 *434:53 0.0364292
23 *434:49 *434:52 1.4
24 *434:48 *434:51 1.4
25 *434:47 *434:50 0.124288
26 *434:46 *434:49 0.870014
27 *434:45 *434:48 0.372866
28 *434:45 *434:47 1.4
29 *434:44 *434:46 1.4
30 *434:43 *434:45 6.96017
31 *434:43 *434:44 0.745732
32 *434:42 *434:43 1.4
33 *434:40 *434:42 8.45162
34 *434:39 *1042:C0 1.4
35 *434:38 *434:40 1.4
36 *434:37 *434:39 0.124289
37 *434:36 *434:38 0.124283
38 *434:36 *434:37 1.4
39 *434:35 *434:36 3.48002
40 *434:33 *434:35 1.4
41 *434:32 *1081:B0 1.4
42 *434:30 *434:33 5.22012
43 *434:29 *434:32 1.24288
44 *434:28 *1102:B0 1.4
45 *434:26 *434:30 1.4
46 *434:26 *434:29 1.4
47 *434:25 *434:28 0.124288
48 *434:24 *1067:B1 1.4
49 *434:23 *434:26 3.48009
50 *434:23 *434:25 1.4
51 *434:22 *434:24 0.248569
52 *434:21 *434:23 6.71159
53 *434:20 *434:22 1.4
54 *434:18 *434:21 1.4
55 *434:17 *434:20 0.745732
56 *434:16 *1095:B0 1.4
57 *434:16 *434:18 0.994261
58 *434:15 *434:17 1.4
59 *434:15 *434:16 3.35568
60 *434:13 *434:15 0.497138
61 *434:12 *1346:A1 1.4
62 *434:11 *434:13 1.4
63 *434:10 *434:12 1.4
64 *434:9 *434:11 1.61575
65 *434:8 *434:10 0.124283
66 *434:7 *434:9 1.4
67 *434:6 *434:8 1.4
68 *434:6 *434:7 8.69995
69 *434:5 *434:6 4.59865
70 *434:4 *434:5 1.4
71 *434:3 *434:4 0.621413
72 *434:2 *434:3 1.4
73 *434:1 *434:2 0.124288
74 *1110:B1 *434:1 1.4
*END

*D_NET *435 0.0370598

*CONN
*I *1080:B0 I *C 51.475 80.765 *L 0.00159 *D AOI22XL
*I *1109:B1 I *C 50.605 91.205 *L 0.00283 *D AOI22X1
*I *1097:B1 I *C 18.705 89.175 *L 0.00283 *D AOI22X1
*I *1125:B I *C 16.385 73.225 *L 0.00167 *D NAND2XL
*I *1049:B1 I *C 23.925 49.445 *L 0.00283 *D AOI22X1
*I *1152:Y O *C 35.3175 47.415 *L 0 *D CLKINVX1
*I *1009:A1 I *C 53.505 42.195 *L 0.00278 *D AOI21X1
*I *1078:B1 I *C 88.595 57.855 *L 0.00283 *D AOI22X1
*I *1100:B1 I *C 92.365 42.195 *L 0.00283 *D AOI22X1
*I *1103:B0 I *C 89.175 89.175 *L 0.00159 *D AOI22XL
*I *1065:B1 I *C 86.275 70.325 *L 0.00283 *D AOI22X1
*I *1088:B1 I *C 92.945 89.175 *L 0.00283 *D AOI22X1

*CAP
1 *435:1 2.05677e-05
2 *435:2 2.05677e-05
3 *435:3 5.07618e-05
4 *435:4 5.07618e-05
5 *435:5 0.000617031
6 *435:6 0.000617031
7 *435:7 2.53809e-05
8 *435:8 0.00269598
9 *435:9 0.000143974
10 *435:10 0.0026706
11 *435:11 0.000143974
12 *435:12 0.00115277
13 *435:15 0.00120003
14 *435:16 0.000397668
15 *435:17 4.72548e-05
16 *435:18 0.000397668
17 *435:19 0.000176741
18 *435:20 0.00193566
19 *435:21 0.000176741
20 *435:22 0.00205286
21 *435:23 4.72548e-05
22 *435:25 0.000117197
23 *435:26 4.72548e-05
24 *435:28 0.00107891
25 *435:31 0.00107891
26 *435:32 5.03749e-05
27 *435:33 0.000511131
28 *435:34 7.38252e-06
29 *435:35 0.000453374
30 *435:37 0.00179797
31 *435:38 0.00500653
32 *435:39 0.00320857
33 *435:41 4.45373e-05
34 *435:43 0.00122362
35 *435:44 0.00220655
36 *435:45 0.00030963
37 *435:46 0.00102746
38 *435:48 0.00030963
39 *435:49 0.000229494
40 *435:50 4.45373e-05
41 *435:51 4.58988e-05
42 *435:52 0.000183595
43 *435:53 4.45373e-05
44 *435:54 0.00135704
45 *435:55 2.33514e-05
46 *435:57 0.00137673
47 *435:58 2.33514e-05
48 *435:59 1.96862e-05
49 *435:62 0.000275966
50 *435:63 0.000275966
51 *435:64 1.96862e-05
52 *435:65 1.96862e-05

*RES
1 *435:65 *1088:B1 1.4
2 *435:64 *435:65 0.124283
3 *435:63 *435:64 1.4
4 *435:62 *435:63 1.61575
5 *435:59 *435:62 1.4
6 *435:58 *1065:B1 1.4
7 *435:57 *1103:B0 1.4
8 *435:57 *435:59 0.124283
9 *435:55 *435:58 0.124285
10 *435:54 *435:57 7.95414
11 *435:53 *1100:B1 1.4
12 *435:52 *435:55 1.4
13 *435:51 *435:54 1.4
14 *435:50 *435:53 0.248576
15 *435:49 *435:52 0.99431
16 *435:49 *435:51 0.248578
17 *435:48 *435:50 1.4
18 *435:46 *435:49 1.4
19 *435:45 *435:48 1.61567
20 *435:44 *1078:B1 1.4
21 *435:44 *435:46 5.46852
22 *435:43 *435:45 1.4
23 *435:43 *435:44 6.4629
24 *435:41 *435:43 0.248576
25 *435:40 *1009:A1 1.4
26 *435:39 *435:41 1.4
27 *435:38 *435:40 1.4
28 *435:38 *435:39 15.0387
29 *435:37 *435:38 7.83019
30 *435:35 *435:37 1.4
31 *435:34 *1152:Y 1.4
32 *435:33 *435:35 2.23718
33 *435:33 *435:34 0.0364292
34 *435:32 *435:33 0.248575
35 *435:31 *435:32 1.4
36 *435:28 *435:31 4.84726
37 *435:27 *1049:B1 1.4
38 *435:26 *1125:B 1.4
39 *435:25 *435:28 1.4
40 *435:24 *435:27 1.4
41 *435:23 *435:26 0.248565
42 *435:22 *435:25 0.621413
43 *435:22 *435:24 1.4
44 *435:21 *435:23 1.4
45 *435:20 *435:22 10.1912
46 *435:19 *435:21 0.99431
47 *435:18 *435:20 1.4
48 *435:17 *435:19 1.4
49 *435:16 *435:18 2.2372
50 *435:15 *435:17 0.248565
51 *435:15 *435:16 1.4
52 *435:12 *435:15 6.83574
53 *435:12 *1097:B1 1.4
54 *435:11 *1109:B1 1.4
55 *435:10 *435:12 1.4
56 *435:9 *435:11 0.869979
57 *435:8 *435:10 13.6711
58 *435:8 *435:9 1.4
59 *435:7 *435:8 0.124283
60 *435:6 *435:7 1.4
61 *435:5 *435:6 3.72848
62 *435:4 *435:5 1.4
63 *435:3 *435:4 0.248566
64 *435:2 *435:3 1.4
65 *435:1 *435:2 0.124283
66 *1080:B0 *435:1 1.4
*END

*D_NET *436 0.0013899

*CONN
*I *1151:A I *C 37.265 54.665 *L 0.00273 *D CLKINVX1
*I *1066:A0 I *C 35.525 57.565 *L 0.00155 *D OAI22XL
*I *1168:Y O *C 33.495 54.375 *L 0 *D NAND2XL

*CAP
1 *436:2 0.000169623
2 *436:3 0.000169623
3 *436:4 0.000302248
4 *436:5 0.000251873
5 *436:6 5.03747e-05
6 *436:8 0.000197893
7 *436:9 0.000197893
8 *436:10 2.51873e-05
9 *436:11 2.51873e-05

*RES
1 *436:11 *1168:Y 1.4
2 *436:10 *436:11 0.124289
3 *436:9 *436:10 1.4
4 *436:8 *436:9 0.86998
5 *436:6 *436:8 1.4
6 *436:5 *1066:A0 1.4
7 *436:4 *436:6 0.248578
8 *436:4 *436:5 1.24289
9 *436:3 *436:4 1.4
10 *436:2 *436:3 0.745697
11 *436:1 *436:2 1.4
12 *1151:A *436:1 1.4
*END

*D_NET *437 0.0327588

*CONN
*I *1045:B1 I *C 90.335 85.985 *L 0.00163 *D AOI222XL
*I *1099:A1 I *C 90.335 79.025 *L 0.0028 *D AOI22X1
*I *1078:A1 I *C 88.015 58.145 *L 0.0028 *D AOI22X1
*I *1075:A1 I *C 79.895 63.365 *L 0.0028 *D AOI22X1
*I *1068:A1 I *C 89.755 47.705 *L 0.0028 *D AOI22X1
*I *1089:A1 I *C 56.985 58.145 *L 0.0028 *D AOI22X1
*I *1151:Y O *C 37.6375 54.665 *L 0 *D CLKINVX1
*I *1064:A1 I *C 13.485 59.595 *L 0.0028 *D AOI22X1
*I *1053:A1 I *C 39.005 85.695 *L 0.0028 *D AOI22X1
*I *1112:A1 I *C 44.805 85.695 *L 0.0028 *D AOI22X1
*I *1345:A1 I *C 13.775 89.175 *L 0.00268 *D AOI221X1

*CAP
1 *437:2 0.000127369
2 *437:3 0.000127369
3 *437:4 0.00053336
4 *437:5 0.00053336
5 *437:6 0.000137696
6 *437:7 0.000160646
7 *437:8 6.08912e-05
8 *437:9 2.29494e-05
9 *437:10 6.08912e-05
10 *437:11 0.00123762
11 *437:13 0.00123762
12 *437:14 9.17977e-05
13 *437:15 0.000803229
14 *437:16 0.000373622
15 *437:17 0.000711432
16 *437:18 0.000537082
17 *437:19 4.67028e-05
18 *437:20 6.88482e-05
19 *437:21 0.00016346
20 *437:22 4.67028e-05
21 *437:23 6.88482e-05
22 *437:24 6.88482e-05
23 *437:25 0.0021947
24 *437:27 6.88482e-05
25 *437:29 0.0021947
26 *437:31 0.000660408
27 *437:33 0.000433015
28 *437:34 0.000660408
29 *437:35 0.000505184
30 *437:37 5.47942e-05
31 *437:38 7.21692e-05
32 *437:39 5.47942e-05
33 *437:40 0.00196627
34 *437:42 0.00199454
35 *437:44 0.000226686
36 *437:45 2.82705e-05
37 *437:46 0.000226686
38 *437:47 0.000176311
39 *437:48 0.000141352
40 *437:49 0.000176311
41 *437:50 0.000141352
42 *437:51 0.001886
43 *437:52 7.3825e-06
44 *437:53 0.00190809
45 *437:54 7.3825e-06
46 *437:55 0.00205031
47 *437:56 2.20927e-05
48 *437:58 0.00205031
49 *437:59 2.36274e-05
50 *437:60 4.12482e-05
51 *437:61 2.36274e-05
52 *437:62 0.00200597
53 *437:64 0.00247234
54 *437:65 0.000236573
55 *437:66 0.000507618
56 *437:68 0.000236573
57 *437:71 4.12482e-05
58 *437:73 4.12482e-05

*RES
1 *437:74 *1345:A1 1.4
2 *437:73 *437:74 1.4
3 *437:71 *437:73 0.248566
4 *437:69 *1112:A1 1.4
5 *437:68 *437:71 1.4
6 *437:67 *1053:A1 1.4
7 *437:66 *437:69 1.4
8 *437:65 *437:68 1.49145
9 *437:64 *437:67 1.4
10 *437:64 *437:66 2.48566
11 *437:62 *437:65 1.4
12 *437:62 *437:64 10.5641
13 *437:61 *1064:A1 1.4
14 *437:60 *437:62 0.248566
15 *437:59 *437:61 0.124283
16 *437:58 *437:60 1.4
17 *437:56 *437:59 1.4
18 *437:55 *437:58 11.3099
19 *437:54 *1151:Y 1.4
20 *437:53 *437:56 0.124289
21 *437:53 *437:55 1.4
22 *437:52 *437:54 0.0364295
23 *437:51 *437:53 9.44575
24 *437:50 *437:52 1.4
25 *437:49 *437:51 1.4
26 *437:48 *437:50 0.621414
27 *437:47 *437:49 0.870021
28 *437:46 *437:48 1.4
29 *437:45 *437:47 1.4
30 *437:44 *437:46 1.1186
31 *437:42 *437:45 0.124283
32 *437:42 *437:44 1.4
33 *437:41 *1089:A1 1.4
34 *437:40 *437:42 8.69988
35 *437:39 *437:41 1.4
36 *437:38 *437:40 1.4
37 *437:37 *437:39 0.248577
38 *437:35 *437:38 0.372866
39 *437:35 *437:37 1.4
40 *437:34 *1068:A1 1.4
41 *437:33 *437:35 2.2372
42 *437:31 *437:34 3.6043
43 *437:29 *437:33 1.4
44 *437:28 *1075:A1 1.4
45 *437:27 *437:31 1.4
46 *437:26 *1078:A1 1.4
47 *437:25 *437:29 10.0674
48 *437:25 *437:28 1.4
49 *437:24 *437:27 0.372866
50 *437:23 *437:26 1.4
51 *437:22 *437:25 1.4
52 *437:21 *437:24 1.4
53 *437:20 *437:23 0.372866
54 *437:19 *437:22 0.248569
55 *437:18 *437:21 0.869992
56 *437:18 *437:20 1.4
57 *437:17 *437:19 1.4
58 *437:16 *437:18 1.98855
59 *437:15 *437:17 3.85295
60 *437:15 *437:16 1.4
61 *437:14 *437:15 0.497155
62 *437:13 *437:14 1.4
63 *437:11 *437:13 6.58708
64 *437:10 *1099:A1 1.4
65 *437:9 *437:11 1.4
66 *437:8 *437:10 0.372849
67 *437:7 *437:9 0.124289
68 *437:7 *437:8 1.4
69 *437:6 *437:7 0.745732
70 *437:5 *437:6 1.4
71 *437:4 *437:5 3.35563
72 *437:3 *437:4 1.4
73 *437:2 *437:3 0.745732
74 *437:1 *437:2 1.4
75 *1045:B1 *437:1 1.4
*END

*D_NET *438 0.033365

*CONN
*I *1084:A1 I *C 38.135 80.475 *L 0.0028 *D AOI22X1
*I *1070:B1 I *C 28.275 70.325 *L 0.00283 *D AOI22X1
*I *1106:A1 I *C 22.475 79.025 *L 0.0028 *D AOI22X1
*I *1042:A1 I *C 47.705 68.295 *L 0.00162 *D AOI222XL
*I *1062:A1 I *C 23.055 58.145 *L 0.0028 *D AOI22X1
*I *1167:Y O *C 37.265 47.705 *L 0 *D AND2X1
*I *1094:A1 I *C 42.775 47.705 *L 0.0028 *D AOI22X1
*I *1077:A1 I *C 92.075 47.705 *L 0.0028 *D AOI22X1
*I *1063:A1 I *C 90.915 33.495 *L 0.0028 *D AOI22X1
*I *1071:A1 I *C 90.915 63.365 *L 0.0028 *D AOI22X1
*I *1096:A1 I *C 92.365 79.025 *L 0.0028 *D AOI22X1

*CAP
1 *438:2 5.07618e-05
2 *438:3 5.07618e-05
3 *438:4 0.000192039
4 *438:5 0.000192039
5 *438:6 0.00101774
6 *438:7 0.00101774
7 *438:8 0.000702936
8 *438:9 4.80649e-05
9 *438:10 0.000831182
10 *438:11 0.000448158
11 *438:13 0.000176311
12 *438:14 0.000448158
13 *438:16 2.82705e-05
14 *438:17 3.94288e-05
15 *438:19 0.00189412
16 *438:20 3.94288e-05
17 *438:21 0.00186585
18 *438:22 0.000906744
19 *438:25 0.000982306
20 *438:27 0.000472272
21 *438:28 7.5562e-05
22 *438:29 0.000472272
23 *438:30 0.000706762
24 *438:31 2.36274e-05
25 *438:32 0.000706762
26 *438:33 2.36274e-05
27 *438:34 0.000805996
28 *438:36 0.000805996
29 *438:37 0.000143042
30 *438:38 0.000686604
31 *438:39 0.00509208
32 *438:41 0.00457234
33 *438:44 2.38177e-05
34 *438:45 0.00108073
35 *438:47 0.00109116
36 *438:48 0.00108073
37 *438:50 0.00109116
38 *438:51 4.58988e-05
39 *438:52 0.000119088
40 *438:53 4.58988e-05
41 *438:54 0.000119088
42 *438:55 0.00016346
43 *438:57 0.00141527
44 *438:59 0.00125181
45 *438:60 0.000137696
46 *438:61 2.12282e-05
47 *438:62 0.000137696
48 *438:63 2.12282e-05

*RES
1 *438:65 *1096:A1 1.4
2 *438:64 *1071:A1 1.4
3 *438:63 *438:65 1.4
4 *438:62 *438:64 1.4
5 *438:61 *438:63 0.124289
6 *438:60 *438:62 0.745732
7 *438:59 *438:61 1.4
8 *438:57 *438:60 1.4
9 *438:57 *438:59 6.71136
10 *438:56 *1063:A1 1.4
11 *438:55 *438:57 0.869992
12 *438:54 *438:56 1.4
13 *438:53 *438:55 1.4
14 *438:52 *438:54 0.621413
15 *438:51 *438:53 0.248578
16 *438:50 *438:52 1.4
17 *438:48 *438:51 1.4
18 *438:47 *438:50 6.0901
19 *438:45 *1077:A1 1.4
20 *438:45 *438:48 5.84142
21 *438:44 *438:47 1.4
22 *438:42 *1094:A1 1.4
23 *438:41 *438:45 1.4
24 *438:41 *438:44 0.124283
25 *438:40 *1167:Y 1.4
26 *438:39 *438:42 1.4
27 *438:39 *438:41 21.1288
28 *438:38 *438:40 1.4
29 *438:38 *438:39 2.36149
30 *438:37 *438:38 0.621444
31 *438:36 *438:37 1.4
32 *438:34 *438:36 3.97722
33 *438:33 *1062:A1 1.4
34 *438:32 *438:34 1.4
35 *438:31 *438:33 0.124283
36 *438:30 *438:32 3.10707
37 *438:29 *438:31 1.4
38 *438:28 *438:30 1.4
39 *438:27 *438:29 2.36144
40 *438:25 *438:28 0.372866
41 *438:25 *438:27 1.4
42 *438:24 *1042:A1 1.4
43 *438:22 *438:25 4.4744
44 *438:21 *438:24 1.4
45 *438:20 *1106:A1 1.4
46 *438:19 *438:22 1.4
47 *438:19 *438:21 8.20267
48 *438:17 *438:20 0.248576
49 *438:16 *438:19 0.124283
50 *438:15 *1070:B1 1.4
51 *438:14 *438:17 1.4
52 *438:13 *438:16 1.4
53 *438:12 *438:15 1.4
54 *438:11 *438:14 2.48566
55 *438:10 *438:13 0.870021
56 *438:10 *438:12 1.4
57 *438:9 *438:11 1.4
58 *438:8 *438:10 3.23151
59 *438:8 *438:9 0.248574
60 *438:7 *438:8 1.4
61 *438:6 *438:7 4.47418
62 *438:5 *438:6 1.4
63 *438:4 *438:5 1.11855
64 *438:3 *438:4 1.4
65 *438:2 *438:3 0.248566
66 *438:1 *438:2 1.4
67 *1084:A1 *438:1 1.4
*END

*D_NET *439 0.0282653

*CONN
*I *1052:A1 I *C 89.175 68.295 *L 0.00162 *D AOI222XL
*I *1045:A1 I *C 89.755 85.985 *L 0.00162 *D AOI222XL
*I *1093:A1 I *C 78.445 79.025 *L 0.0028 *D AOI22X1
*I *1041:B1 I *C 77.865 57.855 *L 0.00163 *D AOI222XL
*I *1114:A1 I *C 46.835 79.025 *L 0.0028 *D AOI22X1
*I *1048:A1 I *C 77.575 44.225 *L 0.00162 *D AOI222XL
*I *1086:A1 I *C 34.945 80.475 *L 0.0028 *D AOI22X1
*I *1070:A1 I *C 27.695 70.035 *L 0.0028 *D AOI22X1
*I *1113:A1 I *C 27.695 49.155 *L 0.0028 *D AOI22X1
*I *1047:A1 I *C 27.115 80.765 *L 0.00162 *D AOI222XL
*I *1166:Y O *C 39.585 49.155 *L 0 *D AND2X1

*CAP
1 *439:2 2.29494e-05
2 *439:3 2.29494e-05
3 *439:4 0.000770596
4 *439:5 0.000770596
5 *439:6 0.000895027
6 *439:7 2.29494e-05
7 *439:8 0.000872078
8 *439:9 0.000556711
9 *439:10 8.42426e-05
10 *439:11 0.000556711
11 *439:12 8.42426e-05
12 *439:15 4.71037e-05
13 *439:16 4.71037e-05
14 *439:17 6.32042e-05
15 *439:18 0.00174715
16 *439:19 0.00294765
17 *439:20 0.00168395
18 *439:21 0.00294765
19 *439:23 2.73971e-05
20 *439:24 6.40129e-05
21 *439:25 2.73971e-05
22 *439:26 0.000166851
23 *439:27 0.0011293
24 *439:28 0.000102838
25 *439:30 0.0011293
26 *439:31 0.00104062
27 *439:34 0.00167514
28 *439:38 0.000634523
29 *439:41 0.0009338
30 *439:42 6.17031e-05
31 *439:43 0.00268559
32 *439:44 5.07618e-05
33 *439:46 0.00183868
34 *439:47 5.07618e-05
35 *439:49 2.51874e-05
36 *439:50 4.11354e-05
37 *439:51 0.00117295
38 *439:52 4.11354e-05
39 *439:53 0.00117295
40 *439:55 2.51874e-05
41 *439:56 2.51874e-05

*RES
1 *439:56 *1166:Y 1.4
2 *439:55 *439:56 0.124288
3 *439:53 *439:55 1.4
4 *439:52 *1047:A1 1.4
5 *439:51 *439:53 5.09584
6 *439:50 *439:52 0.248565
7 *439:49 *439:51 1.4
8 *439:47 *439:50 1.4
9 *439:46 *439:49 0.124288
10 *439:46 *1113:A1 1.4
11 *439:44 *439:47 0.248566
12 *439:43 *439:46 8.94878
13 *439:43 *1070:A1 1.4
14 *439:42 *439:44 1.4
15 *439:41 *439:43 4.47435
16 *439:41 *439:42 0.372848
17 *439:38 *439:41 1.4
18 *439:37 *1086:A1 1.4
19 *439:36 *1048:A1 1.4
20 *439:34 *439:38 3.10707
21 *439:34 *439:37 1.4
22 *439:33 *439:36 1.4
23 *439:32 *1114:A1 1.4
24 *439:31 *439:34 5.0956
25 *439:30 *439:33 1.4
26 *439:29 *439:32 1.4
27 *439:28 *439:31 1.4
28 *439:27 *439:30 5.8414
29 *439:26 *439:29 1.4
30 *439:26 *439:28 0.621413
31 *439:25 *439:27 1.4
32 *439:24 *439:26 0.372851
33 *439:23 *439:25 0.124289
34 *439:21 *439:24 1.4
35 *439:20 *439:23 1.4
36 *439:20 *1041:B1 1.4
37 *439:19 *439:21 13.2988
38 *439:18 *439:20 8.70021
39 *439:18 *439:19 1.4
40 *439:17 *439:18 0.372864
41 *439:16 *439:17 1.4
42 *439:15 *439:16 0.248578
43 *439:12 *439:15 1.4
44 *439:12 *1093:A1 1.4
45 *439:11 *1045:A1 1.4
46 *439:10 *439:12 0.497134
47 *439:9 *439:11 3.47992
48 *439:8 *439:10 1.4
49 *439:7 *439:9 1.4
50 *439:6 *439:8 4.72297
51 *439:6 *439:7 0.124289
52 *439:5 *439:6 1.4
53 *439:4 *439:5 4.10139
54 *439:3 *439:4 1.4
55 *439:2 *439:3 0.124289
56 *439:1 *439:2 1.4
57 *1052:A1 *439:1 1.4
*END

*D_NET *440 0.0271166

*CONN
*I *1048:C0 I *C 76.125 43.935 *L 0.00166 *D AOI222XL
*I *1041:A1 I *C 77.285 57.855 *L 0.00162 *D AOI222XL
*I *1067:A1 I *C 78.735 70.035 *L 0.0028 *D AOI22X1
*I *1093:B1 I *C 77.865 78.735 *L 0.00283 *D AOI22X1
*I *1080:A0 I *C 52.635 80.765 *L 0.00157 *D AOI22XL
*I *1114:B1 I *C 46.255 78.735 *L 0.00283 *D AOI22X1
*I *1047:B1 I *C 27.695 80.765 *L 0.00163 *D AOI222XL
*I *1113:B1 I *C 27.115 49.445 *L 0.00283 *D AOI22X1
*I *1073:A1 I *C 24.215 63.075 *L 0.00278 *D AOI21X1
*I *1165:Y O *C 36.395 43.935 *L 0 *D AND2X1
*I *1349:A1 I *C 46.255 42.485 *L 0.0028 *D AOI22X1

*CAP
1 *440:1 4.80149e-05
2 *440:2 4.80149e-05
3 *440:3 0.000110551
4 *440:4 0.000110551
5 *440:5 0.00120133
6 *440:6 0.00221169
7 *440:7 0.00172668
8 *440:9 0.000716313
9 *440:10 0.000130314
10 *440:11 0.0021164
11 *440:12 0.000130314
12 *440:13 4.86529e-05
13 *440:14 0.00206775
14 *440:17 2.04704e-05
15 *440:20 0.000143293
16 *440:21 0.000122823
17 *440:22 0.000556798
18 *440:24 0.00207965
19 *440:25 2.05677e-05
20 *440:26 0.001599
21 *440:27 2.05677e-05
22 *440:28 0.000123406
23 *440:29 7.61427e-05
24 *440:31 0.000123406
25 *440:32 0.00142413
26 *440:33 0.000101524
27 *440:34 0.00142413
28 *440:35 0.000101524
29 *440:36 8.48115e-05
30 *440:38 8.48115e-05
31 *440:40 5.03747e-05
32 *440:41 0.00113343
33 *440:42 0.000242549
34 *440:43 0.00143568
35 *440:44 0.000242549
36 *440:46 0.000352624
37 *440:47 9.45097e-05
38 *440:49 0.000858254
39 *440:50 9.45097e-05
40 *440:52 0.000858254
41 *440:54 0.000125937
42 *440:55 0.000327437
43 *440:56 5.7217e-05
44 *440:57 0.000201499
45 *440:58 5.7217e-05
46 *440:59 0.00102991
47 *440:61 0.00102991
48 *440:63 7.55623e-05
49 *440:64 7.55623e-05

*RES
1 *440:64 *1349:A1 1.4
2 *440:63 *440:64 0.372863
3 *440:61 *440:63 1.4
4 *440:60 *1165:Y 1.4
5 *440:59 *440:61 4.47439
6 *440:58 *440:60 1.4
7 *440:57 *440:59 1.4
8 *440:56 *440:58 0.248577
9 *440:55 *440:57 0.994302
10 *440:55 *440:56 1.4
11 *440:54 *440:55 0.621439
12 *440:52 *440:54 1.4
13 *440:50 *1073:A1 1.4
14 *440:49 *440:52 3.72866
15 *440:48 *1113:B1 1.4
16 *440:47 *440:50 0.497131
17 *440:46 *440:49 1.4
18 *440:45 *440:48 1.4
19 *440:44 *440:47 1.4
20 *440:43 *440:46 1.74003
21 *440:43 *440:45 1.4
22 *440:42 *440:44 1.24287
23 *440:41 *440:43 5.34441
24 *440:41 *440:42 1.4
25 *440:40 *440:41 0.248578
26 *440:38 *440:40 1.4
27 *440:37 *1047:B1 1.4
28 *440:36 *440:38 0.372849
29 *440:35 *440:37 1.4
30 *440:34 *440:36 1.4
31 *440:33 *440:35 0.497132
32 *440:32 *440:34 7.08444
33 *440:31 *440:33 1.4
34 *440:29 *440:32 1.4
35 *440:28 *440:31 0.745696
36 *440:27 *1114:B1 1.4
37 *440:26 *440:29 0.372849
38 *440:26 *440:28 1.4
39 *440:25 *440:27 0.124283
40 *440:24 *440:26 7.45697
41 *440:24 *440:25 1.4
42 *440:22 *440:24 2.73423
43 *440:21 *1080:A0 1.4
44 *440:20 *440:22 1.4
45 *440:20 *440:21 0.745727
46 *440:17 *440:20 0.124288
47 *440:16 *1093:B1 1.4
48 *440:15 *1067:A1 1.4
49 *440:14 *440:17 1.4
50 *440:13 *440:16 1.4
51 *440:12 *440:15 1.4
52 *440:11 *440:14 10.5645
53 *440:11 *440:13 0.248578
54 *440:10 *440:12 0.621444
55 *440:9 *440:11 1.4
56 *440:7 *440:10 1.4
57 *440:7 *440:9 3.72866
58 *440:6 *1041:A1 1.4
59 *440:6 *440:7 5.22013
60 *440:5 *440:6 6.21425
61 *440:4 *440:5 1.4
62 *440:3 *440:4 0.497153
63 *440:2 *440:3 1.4
64 *440:1 *440:2 0.248565
65 *1048:C0 *440:1 1.4
*END

*D_NET *441 0.0262861

*CONN
*I *1035:A1 I *C 30.595 91.205 *L 0.00268 *D AOI221X1
*I *1069:A1 I *C 27.405 90.915 *L 0.0028 *D AOI22X1
*I *1083:A1 I *C 39.875 94.685 *L 0.0028 *D AOI22X1
*I *1105:A0 I *C 80.765 91.205 *L 0.00157 *D AOI22XL
*I *1079:A1 I *C 84.535 58.145 *L 0.0028 *D AOI22X1
*I *1098:A1 I *C 85.695 85.695 *L 0.0028 *D AOI22X1
*I *1346:B1 I *C 85.115 49.445 *L 0.00163 *D AOI222XL
*I *1048:B1 I *C 76.995 44.225 *L 0.00163 *D AOI222XL
*I *1164:Y O *C 56.115 43.645 *L 0 *D NOR2X1
*I *1005:A1 I *C 55.245 59.885 *L 0.00268 *D AOI221X1

*CAP
1 *441:1 2.05677e-05
2 *441:2 2.05677e-05
3 *441:3 0.00109138
4 *441:4 0.000812189
5 *441:5 0.00027919
6 *441:6 8.22708e-05
7 *441:8 0.00026738
8 *441:10 0.00344851
9 *441:11 0.000185109
10 *441:12 0.00349096
11 *441:14 4.24564e-05
12 *441:15 5.90586e-05
13 *441:16 0.000334665
14 *441:17 5.90586e-05
15 *441:18 0.000334665
16 *441:20 0.00023351
17 *441:21 0.00023351
18 *441:22 0.000118117
19 *441:23 0.00222335
20 *441:24 8.49128e-05
21 *441:25 0.00275095
22 *441:26 8.49128e-05
23 *441:28 0.000690256
24 *441:29 1.96862e-05
25 *441:30 4.76353e-05
26 *441:31 4.45373e-05
27 *441:32 1.96862e-05
28 *441:33 4.76353e-05
29 *441:34 0.00063645
30 *441:36 4.45373e-05
31 *441:37 0.00063645
32 *441:38 4.45373e-05
33 *441:39 0.000432134
34 *441:41 0.000480149
35 *441:43 4.80149e-05
36 *441:44 0.00198993
37 *441:45 0.00207284
38 *441:47 8.29136e-05
39 *441:49 0.00134571
40 *441:50 0.00134571

*RES
1 *441:50 *1005:A1 1.4
2 *441:49 *441:50 6.95999
3 *441:47 *441:49 1.4
4 *441:46 *1164:Y 1.4
5 *441:45 *441:47 0.372865
6 *441:45 *441:46 1.4
7 *441:44 *441:45 8.94875
8 *441:43 *441:44 1.4
9 *441:41 *441:43 0.248565
10 *441:41 *1048:B1 1.4
11 *441:39 *441:41 2.23709
12 *441:38 *1346:B1 1.4
13 *441:37 *441:39 1.4
14 *441:36 *441:38 0.248576
15 *441:34 *441:37 3.23137
16 *441:33 *441:36 1.4
17 *441:32 *1098:A1 1.4
18 *441:31 *441:34 1.4
19 *441:30 *441:33 0.248565
20 *441:29 *441:32 0.124283
21 *441:28 *441:31 0.248576
22 *441:28 *441:30 1.4
23 *441:26 *441:29 1.4
24 *441:25 *441:28 3.47999
25 *441:25 *1079:A1 1.4
26 *441:24 *441:26 0.497155
27 *441:23 *441:25 11.6827
28 *441:23 *441:24 1.4
29 *441:22 *441:23 0.745696
30 *441:21 *441:22 1.4
31 *441:20 *441:21 1.36718
32 *441:18 *441:20 1.4
33 *441:17 *1105:A0 1.4
34 *441:16 *441:18 2.11281
35 *441:15 *441:17 0.372848
36 *441:14 *441:16 1.4
37 *441:12 *441:15 1.4
38 *441:12 *441:14 0.248578
39 *441:11 *1083:A1 1.4
40 *441:10 *441:12 17.5245
41 *441:8 *441:11 1.11854
42 *441:8 *441:10 1.4
43 *441:7 *1069:A1 1.4
44 *441:6 *441:8 0.497131
45 *441:5 *441:7 1.4
46 *441:4 *441:6 1.4
47 *441:3 *441:5 1.36711
48 *441:3 *441:4 3.97705
49 *441:2 *441:3 1.4
50 *441:1 *441:2 0.124283
51 *1035:A1 *441:1 1.4
*END

*D_NET *442 0.0255732

*CONN
*I *1069:B1 I *C 27.985 91.205 *L 0.00283 *D AOI22X1
*I *1035:B1 I *C 31.175 91.205 *L 0.00268 *D AOI221X1
*I *1083:B1 I *C 40.455 94.395 *L 0.00283 *D AOI22X1
*I *1105:B0 I *C 81.925 91.205 *L 0.00159 *D AOI22XL
*I *1109:A1 I *C 51.185 90.915 *L 0.0028 *D AOI22X1
*I *1065:A1 I *C 85.695 70.035 *L 0.0028 *D AOI22X1
*I *1098:B1 I *C 86.275 85.985 *L 0.00283 *D AOI22X1
*I *1041:C0 I *C 78.735 58.145 *L 0.00166 *D AOI222XL
*I *1108:B1 I *C 68.005 52.635 *L 0.00283 *D AOI22X1
*I *1150:Y O *C 36.4775 52.635 *L 0 *D CLKINVX1

*CAP
1 *442:1 4.11354e-05
2 *442:2 4.11354e-05
3 *442:3 0.00027919
4 *442:4 0.00109138
5 *442:5 0.000812189
6 *442:6 4.11354e-05
7 *442:7 0.000226245
8 *442:8 4.11354e-05
9 *442:9 0.000185109
10 *442:10 4.11354e-05
11 *442:13 0.000939093
12 *442:14 0.00348266
13 *442:15 0.00281953
14 *442:16 2.05677e-05
15 *442:17 0.000275966
16 *442:19 2.05677e-05
17 *442:20 0.000354351
18 *442:23 0.00154155
19 *442:24 4.24564e-05
20 *442:25 0.00212126
21 *442:26 4.24564e-05
22 *442:28 0.000934056
23 *442:30 0.000550786
24 *442:32 0.000550786
25 *442:33 2.33514e-05
26 *442:34 0.000467028
27 *442:35 2.33514e-05
28 *442:36 0.000467028
29 *442:38 0.00100702
30 *442:39 0.0040409
31 *442:41 0.00303388
32 *442:43 7.3825e-06
33 *442:44 7.3825e-06

*RES
1 *442:44 *1150:Y 1.4
2 *442:43 *442:44 0.0364295
3 *442:41 *442:43 1.4
4 *442:40 *1108:B1 1.4
5 *442:39 *442:41 13.5472
6 *442:39 *442:40 1.4
7 *442:38 *442:39 4.59868
8 *442:36 *442:38 1.4
9 *442:35 *1041:C0 1.4
10 *442:34 *442:36 2.48569
11 *442:33 *442:35 0.124285
12 *442:32 *442:34 1.4
13 *442:32 *442:33 1.4
14 *442:30 *442:32 2.98293
15 *442:29 *1098:B1 1.4
16 *442:28 *442:30 1.4
17 *442:26 *442:29 1.4
18 *442:25 *442:28 4.97138
19 *442:25 *1065:A1 1.4
20 *442:24 *442:26 0.248578
21 *442:23 *442:25 6.8356
22 *442:23 *442:24 1.4
23 *442:20 *442:23 2.23709
24 *442:19 *1109:A1 1.4
25 *442:18 *1105:B0 1.4
26 *442:17 *442:20 1.4
27 *442:16 *442:19 0.124283
28 *442:15 *442:18 1.4
29 *442:15 *442:17 1.61575
30 *442:14 *442:16 1.4
31 *442:14 *442:15 13.1746
32 *442:13 *442:14 4.59847
33 *442:10 *442:13 1.4
34 *442:9 *1083:B1 1.4
35 *442:8 *1035:B1 1.4
36 *442:7 *442:10 0.248565
37 *442:7 *442:9 1.11854
38 *442:6 *442:8 0.248565
39 *442:5 *442:7 1.4
40 *442:4 *442:6 1.4
41 *442:4 *442:5 3.97705
42 *442:3 *442:4 1.36711
43 *442:2 *442:3 1.4
44 *442:1 *442:2 0.248565
45 *1069:B1 *442:1 1.4
*END

*D_NET *443 0.0246601

*CONN
*I *1090:B1 I *C 79.315 85.985 *L 0.00283 *D AOI22X1
*I *1006:B1 I *C 74.675 91.205 *L 0.00268 *D AOI221X1
*I *1082:B1 I *C 63.075 85.985 *L 0.00283 *D AOI22X1
*I *1074:B1 I *C 72.935 65.105 *L 0.00283 *D AOI22X1
*I *1127:B I *C 51.765 60.175 *L 0.00167 *D NAND2XL
*I *1092:B1 I *C 47.705 54.665 *L 0.00283 *D AOI22X1
*I *1149:Y O *C 41.325 54.375 *L 0 *D INVX2
*I *1039:B0 I *C 16.675 57.855 *L 0.00159 *D AOI22XL
*I *1044:A1 I *C 13.195 78.735 *L 0.00278 *D AOI21X1
*I *1347:A1 I *C 12.615 83.955 *L 0.00168 *D AO22XL

*CAP
1 *443:1 3.93724e-05
2 *443:2 3.93724e-05
3 *443:3 0.000378379
4 *443:4 0.000378379
5 *443:5 2.04704e-05
6 *443:6 0.000327527
7 *443:7 0.000307056
8 *443:8 0.000121632
9 *443:10 0.000121632
10 *443:11 4.09408e-05
11 *443:12 0.00169844
12 *443:13 0.000851425
13 *443:14 0.0016575
14 *443:15 0.000851425
15 *443:16 2.73971e-05
16 *443:17 2.04704e-05
17 *443:18 0.00202869
18 *443:19 2.04704e-05
19 *443:21 0.0020013
20 *443:24 0.000428185
21 *443:25 0.00085637
22 *443:27 0.000428185
23 *443:28 0.000395787
24 *443:29 0.00101774
25 *443:30 5.03747e-05
26 *443:31 0.000621951
27 *443:32 5.03747e-05
28 *443:33 7.5562e-05
29 *443:35 7.5562e-05
30 *443:36 0.00220221
31 *443:38 0.00220221
32 *443:39 0.000283529
33 *443:40 0.00201826
34 *443:41 0.00173473
35 *443:43 0.000247489
36 *443:44 0.000247489
37 *443:45 0.00035486
38 *443:46 0.000315431
39 *443:47 3.94288e-05
40 *443:48 4.12482e-05
41 *443:50 4.12482e-05

*RES
1 *443:51 *1347:A1 1.4
2 *443:50 *443:51 1.4
3 *443:48 *443:50 0.248566
4 *443:47 *1044:A1 1.4
5 *443:46 *443:48 1.4
6 *443:45 *443:47 0.248576
7 *443:45 *443:46 1.9886
8 *443:44 *443:45 1.4
9 *443:43 *443:44 1.4914
10 *443:41 *443:43 1.4
11 *443:40 *1039:B0 1.4
12 *443:40 *443:41 9.19693
13 *443:39 *443:40 1.49139
14 *443:38 *443:39 1.4
15 *443:36 *443:38 10.5642
16 *443:35 *1149:Y 1.4
17 *443:35 *443:36 1.4
18 *443:33 *443:35 0.372866
19 *443:32 *1092:B1 1.4
20 *443:31 *443:33 1.4
21 *443:30 *443:32 0.248578
22 *443:29 *443:31 2.73422
23 *443:29 *443:30 1.4
24 *443:28 *443:29 1.73996
25 *443:27 *443:28 1.4
26 *443:25 *443:27 2.11291
27 *443:25 *1127:B 1.4
28 *443:24 *443:25 2.11291
29 *443:21 *443:24 1.4
30 *443:20 *1074:B1 1.4
31 *443:19 *1082:B1 1.4
32 *443:18 *443:21 9.07307
33 *443:18 *443:20 1.4
34 *443:17 *443:19 0.124288
35 *443:16 *443:18 0.124289
36 *443:15 *443:17 1.4
37 *443:14 *443:16 1.4
38 *443:13 *443:15 4.35011
39 *443:12 *443:14 9.07305
40 *443:12 *443:13 1.4
41 *443:11 *443:12 0.248576
42 *443:10 *443:11 1.4
43 *443:8 *443:10 0.621444
44 *443:7 *1006:B1 1.4
45 *443:6 *443:8 1.4
46 *443:6 *443:7 1.86432
47 *443:5 *443:6 0.124288
48 *443:4 *443:5 1.4
49 *443:3 *443:4 1.98862
50 *443:2 *443:3 1.4
51 *443:1 *443:2 0.248565
52 *1090:B1 *443:1 1.4
*END

*D_NET *444 0.0145287

*CONN
*I *1107:B0 I *C 56.695 91.205 *L 0.00159 *D AOI22XL
*I *1091:B0 I *C 65.975 85.985 *L 0.00159 *D AOI22XL
*I *1101:B1 I *C 69.165 91.205 *L 0.00283 *D AOI22X1
*I *1057:B0 I *C 59.015 73.515 *L 0.00165 *D AOI32XL
*I *1072:B0 I *C 69.745 59.885 *L 0.00159 *D AOI22XL
*I *1123:B I *C 70.035 47.125 *L 0.00167 *D NAND2XL
*I *1161:Y O *C 65.685 46.835 *L 0 *D NOR2XL
*I *1087:B0 I *C 58.725 49.445 *L 0.00159 *D AOI22XL

*CAP
1 *444:1 4.09408e-05
2 *444:2 4.09408e-05
3 *444:3 0.000778446
4 *444:4 0.000778446
5 *444:5 8.18817e-05
6 *444:6 0.000409408
7 *444:7 0.000267591
8 *444:8 0.00124287
9 *444:9 0.000267591
10 *444:11 0.000939396
11 *444:12 4.09408e-05
12 *444:13 0.00065753
13 *444:14 2.40564e-05
14 *444:15 4.09408e-05
15 *444:16 0.00065753
16 *444:17 0.000438353
17 *444:19 2.40564e-05
18 *444:20 0.000438353
19 *444:21 2.40564e-05
20 *444:22 0.00113065
21 *444:24 0.00221228
22 *444:25 8.21913e-05
23 *444:26 0.00108163
24 *444:27 8.21913e-05
25 *444:28 5.52757e-05
26 *444:30 0.000469844
27 *444:32 2.40074e-05
28 *444:33 0.00052512
29 *444:34 2.40074e-05
30 *444:36 0.000110551
31 *444:39 0.000216067
32 *444:40 0.000216067
33 *444:41 0.000552757
34 *444:42 0.000552757

*RES
1 *444:43 *1087:B0 1.4
2 *444:42 *444:43 1.4
3 *444:41 *444:42 2.48576
4 *444:40 *444:41 1.4
5 *444:39 *444:40 1.11854
6 *444:36 *444:39 1.4
7 *444:35 *1161:Y 1.4
8 *444:34 *1123:B 1.4
9 *444:33 *444:36 0.497153
10 *444:33 *444:35 1.4
11 *444:32 *444:34 0.124283
12 *444:30 *444:33 1.86432
13 *444:30 *444:32 1.4
14 *444:29 *1072:B0 1.4
15 *444:28 *444:30 0.248576
16 *444:27 *444:29 1.4
17 *444:26 *444:28 1.4
18 *444:25 *444:27 0.372866
19 *444:24 *444:26 5.59288
20 *444:24 *444:25 1.4
21 *444:22 *444:24 5.84157
22 *444:21 *1057:B0 1.4
23 *444:20 *444:22 1.4
24 *444:19 *444:21 0.124289
25 *444:17 *444:20 1.98862
26 *444:16 *444:19 1.4
27 *444:15 *1101:B1 1.4
28 *444:14 *444:17 1.4
29 *444:13 *444:16 2.98293
30 *444:12 *444:15 0.248576
31 *444:11 *444:14 0.124289
32 *444:11 *444:13 1.4
33 *444:9 *444:12 1.4
34 *444:8 *444:11 5.2201
35 *444:8 *1091:B0 1.4
36 *444:7 *444:9 1.36718
37 *444:6 *444:8 1.9886
38 *444:6 *444:7 1.4
39 *444:5 *444:6 0.497151
40 *444:4 *444:5 1.4
41 *444:3 *444:4 3.97724
42 *444:2 *444:3 1.4
43 *444:1 *444:2 0.248576
44 *1107:B0 *444:1 1.4
*END

*D_NET *445 0.0128465

*CONN
*I *1107:A0 I *C 55.535 91.205 *L 0.00157 *D AOI22XL
*I *1101:A1 I *C 68.585 90.915 *L 0.0028 *D AOI22X1
*I *1091:A0 I *C 67.135 85.985 *L 0.00157 *D AOI22XL
*I *1072:A0 I *C 68.585 59.885 *L 0.00157 *D AOI22XL
*I *1160:Y O *C 65.685 52.055 *L 0 *D NOR2XL
*I *1087:A0 I *C 57.565 49.445 *L 0.00157 *D AOI22XL
*I *1043:B1 I *C 58.145 59.885 *L 0.00283 *D AOI22X1

*CAP
1 *445:1 2.04704e-05
2 *445:2 2.04704e-05
3 *445:3 0.00107036
4 *445:4 0.00107036
5 *445:5 4.09408e-05
6 *445:6 0.000286586
7 *445:7 2.43264e-05
8 *445:8 0.000245645
9 *445:9 2.43264e-05
10 *445:10 4.86529e-05
11 *445:12 4.86529e-05
12 *445:14 0.000102352
13 *445:15 0.00219645
14 *445:16 4.86529e-05
15 *445:17 0.0020941
16 *445:18 4.86529e-05
17 *445:19 0.000273971
18 *445:21 8.21913e-05
19 *445:22 0.00019178
20 *445:24 2.40564e-05
21 *445:25 0.000625441
22 *445:26 2.40564e-05
23 *445:27 0.000625441
24 *445:29 0.00077386
25 *445:31 0.000829136
26 *445:32 0.000216067
27 *445:33 5.52757e-05
28 *445:34 0.000216067
29 *445:35 0.000649498
30 *445:37 0.000649498
31 *445:39 0.000109588
32 *445:41 0.000109588

*RES
1 *445:42 *1043:B1 1.4
2 *445:41 *445:42 1.4
3 *445:39 *445:41 0.497155
4 *445:38 *1087:A0 1.4
5 *445:37 *445:39 1.4
6 *445:36 *445:38 1.4
7 *445:35 *445:37 3.35579
8 *445:34 *445:36 1.4
9 *445:33 *445:35 1.4
10 *445:32 *445:34 1.11854
11 *445:31 *445:33 0.248576
12 *445:31 *445:32 1.4
13 *445:29 *445:31 3.48007
14 *445:27 *1160:Y 1.4
15 *445:27 *445:29 1.4
16 *445:26 *1072:A0 1.4
17 *445:25 *445:27 3.2315
18 *445:24 *445:26 0.124289
19 *445:22 *445:25 1.4
20 *445:21 *445:24 1.4
21 *445:20 *1091:A0 1.4
22 *445:19 *445:22 0.870021
23 *445:19 *445:21 0.372866
24 *445:18 *445:20 1.4
25 *445:17 *445:19 1.4
26 *445:16 *445:18 0.248578
27 *445:15 *445:17 11.3103
28 *445:15 *445:16 1.4
29 *445:14 *445:15 0.621439
30 *445:12 *445:14 1.4
31 *445:11 *1101:A1 1.4
32 *445:10 *445:12 0.248578
33 *445:9 *445:11 1.4
34 *445:8 *445:10 1.4
35 *445:7 *445:9 0.124289
36 *445:6 *445:8 1.49145
37 *445:6 *445:7 1.4
38 *445:5 *445:6 0.248576
39 *445:4 *445:5 1.4
40 *445:3 *445:4 5.46871
41 *445:2 *445:3 1.4
42 *445:1 *445:2 0.124288
43 *1107:A0 *445:1 1.4
*END

*D_NET *446 0.00033075

*CONN
*I *1049:A1 I *C 23.345 49.155 *L 0.0028 *D AOI22X1
*I *1148:Y O *C 21.895 49.155 *L 0 *D AO22XL

*CAP
1 *446:1 2.34394e-05
2 *446:2 2.34394e-05
3 *446:3 0.000118496
4 *446:4 0.000118496
5 *446:5 2.34394e-05
6 *446:6 2.34394e-05

*RES
1 *446:6 *1148:Y 1.4
2 *446:5 *446:6 0.124283
3 *446:4 *446:5 1.4
4 *446:3 *446:4 0.621444
5 *446:2 *446:3 1.4
6 *446:1 *446:2 0.124283
7 *1049:A1 *446:1 1.4
*END

*D_NET *447 0.000564914

*CONN
*I *1055:B I *C 58.435 10.585 *L 0.00172 *D AND2X1
*I *1147:Y O *C 60.465 11.455 *L 0 *D AOI22XL

*CAP
1 *447:1 2.11687e-05
2 *447:2 2.11687e-05
3 *447:3 0.000176614
4 *447:4 0.000176614
5 *447:5 8.46747e-05
6 *447:6 8.46747e-05

*RES
1 *447:6 *1147:Y 1.4
2 *447:5 *447:6 0.497155
3 *447:4 *447:5 1.4
4 *447:3 *447:4 0.869979
5 *447:2 *447:3 1.4
6 *447:1 *447:2 0.124289
7 *1055:B *447:1 1.4
*END

*D_NET *448 0.000653827

*CONN
*I *1046:A1 I *C 49.735 60.175 *L 0.00274 *D OAI21X1
*I *1146:Y O *C 47.415 59.595 *L 0 *D AOI22X1

*CAP
1 *448:1 2.51873e-05
2 *448:2 2.51873e-05
3 *448:3 0.000226164
4 *448:4 0.000226164
5 *448:5 7.5562e-05
6 *448:6 7.5562e-05

*RES
1 *448:6 *1146:Y 1.4
2 *448:5 *448:6 0.372866
3 *448:4 *448:5 1.4
4 *448:3 *448:4 0.994263
5 *448:2 *448:3 1.4
6 *448:1 *448:2 0.124289
7 *1046:A1 *448:1 1.4
*END

*D_NET *449 0.00188483

*CONN
*I *1026:A1 I *C 48.285 21.315 *L 0.00278 *D AOI21X1
*I *1145:Y O *C 48.285 12.615 *L 0 *D AOI22X1

*CAP
1 *449:2 0.000153854
2 *449:3 0.000153854
3 *449:4 0.000634705
4 *449:5 0.000634705
5 *449:6 0.000153854
6 *449:7 0.000153854

*RES
1 *449:8 *1145:Y 1.4
2 *449:7 *449:8 1.4
3 *449:6 *449:7 0.745696
4 *449:5 *449:6 1.4
5 *449:4 *449:5 3.72864
6 *449:3 *449:4 1.4
7 *449:2 *449:3 0.745696
8 *449:1 *449:2 1.4
9 *1026:A1 *449:1 1.4
*END

*D_NET *450 0.000631623

*CONN
*I *1055:A I *C 57.855 10.585 *L 0.00178 *D AND2X1
*I *1144:Y O *C 54.955 11.455 *L 0 *D AOI22XL

*CAP
1 *450:1 6.3506e-05
2 *450:2 6.3506e-05
3 *450:3 0.000252305
4 *450:4 0.000252305

*RES
1 *450:5 *1144:Y 1.4
2 *450:4 *450:5 1.4
3 *450:3 *450:4 1.24283
4 *450:2 *450:3 1.4
5 *450:1 *450:2 0.372866
6 *1055:A *450:1 1.4
*END

*D_NET *451 0.00133779

*CONN
*I *1043:A1 I *C 57.565 59.595 *L 0.0028 *D AOI22X1
*I *1143:Y O *C 59.595 58.145 *L 0 *D AO22XL

*CAP
1 *451:1 9.62255e-05
2 *451:2 9.62255e-05
3 *451:3 0.000273971
4 *451:4 0.000273971
5 *451:5 0.000216507
6 *451:6 0.000216507
7 *451:7 8.21913e-05
8 *451:8 8.21913e-05

*RES
1 *451:9 *1143:Y 1.4
2 *451:8 *451:9 1.4
3 *451:7 *451:8 0.372866
4 *451:6 *451:7 1.4
5 *451:5 *451:6 1.1186
6 *451:4 *451:5 1.4
7 *451:3 *451:4 1.24289
8 *451:2 *451:3 1.4
9 *451:1 *451:2 0.497155
10 *1043:A1 *451:1 1.4
*END

*D_NET *452 0.00108092

*CONN
*I *1058:B0 I *C 59.015 39.295 *L 0.00277 *D AOI21X1
*I *1142:Y O *C 57.275 42.485 *L 0 *D OAI21X1

*CAP
1 *452:2 5.52757e-05
2 *452:3 5.52757e-05
3 *452:4 0.000264082
4 *452:5 0.000264082
5 *452:6 0.000221103
6 *452:7 0.000221103

*RES
1 *452:8 *1142:Y 1.4
2 *452:7 *452:8 1.4
3 *452:6 *452:7 0.994306
4 *452:5 *452:6 1.4
5 *452:4 *452:5 1.36711
6 *452:3 *452:4 1.4
7 *452:2 *452:3 0.248576
8 *452:1 *452:2 1.4
9 *1058:B0 *452:1 1.4
*END

*D_NET *453 0.0023176

*CONN
*I *1011:A1 I *C 68.005 47.125 *L 0.00278 *D OAI211X1
*I *1141:Y O *C 63.655 38.715 *L 0 *D AOI22X1

*CAP
1 *453:1 0.000720223
2 *453:2 0.000720223
3 *453:3 0.000414568
4 *453:4 0.000414568
5 *453:5 2.40074e-05
6 *453:6 2.40074e-05

*RES
1 *453:6 *1141:Y 1.4
2 *453:5 *453:6 0.124283
3 *453:4 *453:5 1.4
4 *453:3 *453:4 1.86432
5 *453:2 *453:3 1.4
6 *453:1 *453:2 3.72848
7 *1011:A1 *453:1 1.4
*END

*D_NET *454 0.00190918

*CONN
*I *1002:A1 I *C 18.125 68.005 *L 0.00278 *D OAI211X1
*I *1140:Y O *C 6.525 68.875 *L 0 *D AOI22XL

*CAP
1 *454:1 4.72548e-05
2 *454:2 4.72548e-05
3 *454:3 0.000883706
4 *454:4 0.000883706
5 *454:5 2.36274e-05
6 *454:6 2.36274e-05

*RES
1 *454:6 *1140:Y 1.4
2 *454:5 *454:6 0.124283
3 *454:4 *454:5 1.4
4 *454:3 *454:4 4.97155
5 *454:2 *454:3 1.4
6 *454:1 *454:2 0.248565
7 *1002:A1 *454:1 1.4
*END

*D_NET *455 0.00145043

*CONN
*I *1056:AN I *C 54.665 26.245 *L 0.00174 *D NOR2BX1
*I *1139:Y O *C 54.955 16.675 *L 0 *D AOI22XL

*CAP
1 *455:1 0.000699986
2 *455:2 0.000699986
3 *455:3 2.52305e-05
4 *455:4 2.52305e-05

*RES
1 *455:5 *1139:Y 1.4
2 *455:4 *455:5 1.4
3 *455:3 *455:4 0.124283
4 *455:2 *455:3 1.4
5 *455:1 *455:2 4.10153
6 *1056:AN *455:1 1.4
*END

*D_NET *456 0.000453917

*CONN
*I *1056:B I *C 55.245 26.535 *L 0.0028 *D NOR2BX1
*I *1138:Y O *C 55.535 28.275 *L 0 *D AO22XL

*CAP
1 *456:2 2.76379e-05
2 *456:3 2.76379e-05
3 *456:4 0.000144045
4 *456:5 0.000144045
5 *456:6 5.52757e-05
6 *456:7 5.52757e-05

*RES
1 *456:8 *1138:Y 1.4
2 *456:7 *456:8 1.4
3 *456:6 *456:7 0.248576
4 *456:5 *456:6 1.4
5 *456:4 *456:5 0.745696
6 *456:3 *456:4 1.4
7 *456:2 *456:3 0.124288
8 *456:1 *456:2 1.4
9 *1056:B *456:1 1.4
*END

*D_NET *457 0.000619305

*CONN
*I *1031:C I *C 44.225 18.415 *L 0.00278 *D NOR3X1
*I *1137:Y O *C 44.515 21.605 *L 0 *D OAI21X1

*CAP
1 *457:2 2.56424e-05
2 *457:3 2.56424e-05
3 *457:4 0.000232725
4 *457:5 0.000232725
5 *457:6 5.12847e-05
6 *457:7 5.12847e-05

*RES
1 *457:8 *1137:Y 1.4
2 *457:7 *457:8 1.4
3 *457:6 *457:7 0.248565
4 *457:5 *457:6 1.4
5 *457:4 *457:5 1.36717
6 *457:3 *457:4 1.4
7 *457:2 *457:3 0.124283
8 *457:1 *457:2 1.4
9 *1031:C *457:1 1.4
*END

*D_NET *458 0.000374394

*CONN
*I *1054:A I *C 37.845 13.195 *L 0.00157 *D NAND2XL
*I *1136:Y O *C 39.005 12.615 *L 0 *D AOI22X1

*CAP
1 *458:1 2.11568e-05
2 *458:2 2.11568e-05
3 *458:3 0.000102569
4 *458:4 0.000102569
5 *458:5 6.34705e-05
6 *458:6 6.34705e-05

*RES
1 *458:6 *1136:Y 1.4
2 *458:5 *458:6 0.372864
3 *458:4 *458:5 1.4
4 *458:3 *458:4 0.497131
5 *458:2 *458:3 1.4
6 *458:1 *458:2 0.124288
7 *1054:A *458:1 1.4
*END

*D_NET *459 0.000851357

*CONN
*I *1054:B I *C 37.265 13.195 *L 0.00167 *D NAND2XL
*I *1135:Y O *C 34.365 12.615 *L 0 *D AOI22X1

*CAP
1 *459:1 6.34705e-05
2 *459:2 6.34705e-05
3 *459:3 0.000256424
4 *459:4 0.000256424
5 *459:5 0.000105784
6 *459:6 0.000105784

*RES
1 *459:6 *1135:Y 1.4
2 *459:5 *459:6 0.621441
3 *459:4 *459:5 1.4
4 *459:3 *459:4 1.24283
5 *459:2 *459:3 1.4
6 *459:1 *459:2 0.372864
7 *1054:B *459:1 1.4
*END

*D_NET *460 0.000804544

*CONN
*I *1085:B I *C 11.745 73.225 *L 0.00171 *D NOR2XL
*I *1134:Y O *C 7.395 74.095 *L 0 *D AOI22XL

*CAP
1 *460:1 2.36274e-05
2 *460:2 2.36274e-05
3 *460:3 0.00033139
4 *460:4 0.00033139
5 *460:5 4.72548e-05
6 *460:6 4.72548e-05

*RES
1 *460:6 *1134:Y 1.4
2 *460:5 *460:6 0.248565
3 *460:4 *460:5 1.4
4 *460:3 *460:4 1.86433
5 *460:2 *460:3 1.4
6 *460:1 *460:2 0.124283
7 *1085:B *460:1 1.4
*END

*D_NET *461 0.00080396

*CONN
*I *1031:B I *C 44.515 18.125 *L 0.00272 *D NOR3X1
*I *1133:Y O *C 44.515 12.615 *L 0 *D AOI221X1

*CAP
1 *461:1 0.00040198
2 *461:2 0.00040198

*RES
1 *461:2 *1133:Y 1.4
2 *461:1 *461:2 2.36147
3 *1031:B *461:1 1.4
*END

*D_NET *462 0.00272662

*CONN
*I *1038:C0 I *C 66.845 21.315 *L 0.00281 *D AOI211X1
*I *1132:Y O *C 52.635 23.055 *L 0 *D OAI21X1

*CAP
1 *462:3 0.000127012
2 *462:4 0.000127012
3 *462:5 0.0012363
4 *462:6 0.0012363

*RES
1 *462:7 *1132:Y 1.4
2 *462:6 *462:7 1.4
3 *462:5 *462:6 6.08985
4 *462:4 *462:5 1.4
5 *462:3 *462:4 0.745732
6 *462:2 *462:3 1.4
7 *462:1 *462:2 1.4
8 *1038:C0 *462:1 1.4
*END

*D_NET *463 0.000613638

*CONN
*I *948:A I *C 17.255 39.295 *L 0.00178 *D AND2X1
*I *1131:Y O *C 15.795 36.975 *L 0 *D NOR2BX1

*CAP
1 *463:1 0.000140636
2 *463:2 0.000140636
3 *463:3 0.000118496
4 *463:4 0.000118496
5 *463:5 4.68787e-05
6 *463:6 4.7687e-05
7 *463:7 8.08254e-07

*RES
1 *463:7 *1131:Y 1.4
2 *463:6 *463:7 0.00428561
3 *463:5 *463:6 0.248565
4 *463:4 *463:5 1.4
5 *463:3 *463:4 0.621444
6 *463:2 *463:3 1.4
7 *463:1 *463:2 0.745696
8 *948:A *463:1 1.4
*END

*D_NET *464 0.000496487

*CONN
*I *1060:C0 I *C 67.715 13.195 *L 0.00277 *D AOI221X1
*I *1130:Y O *C 70.325 13.485 *L 0 *D NOR2XL

*CAP
1 *464:1 2.11687e-05
2 *464:2 2.11687e-05
3 *464:3 0.000227075
4 *464:4 0.000227075

*RES
1 *464:5 *1130:Y 1.4
2 *464:4 *464:5 1.4
3 *464:3 *464:4 1.11854
4 *464:2 *464:3 1.4
5 *464:1 *464:2 0.124289
6 *1060:C0 *464:1 1.4
*END

*D_NET *465 0.000492364

*CONN
*I *1118:B0 I *C 40.165 23.635 *L 0.00277 *D AOI21X1
*I *1129:Y O *C 39.295 25.955 *L 0 *D NOR2XL

*CAP
1 *465:2 2.56424e-05
2 *465:3 2.56424e-05
3 *465:4 0.000169255
4 *465:5 0.000169255
5 *465:6 5.12847e-05
6 *465:7 5.12847e-05

*RES
1 *465:8 *1129:Y 1.4
2 *465:7 *465:8 1.4
3 *465:6 *465:7 0.248565
4 *465:5 *465:6 1.4
5 *465:4 *465:5 0.994305
6 *465:3 *465:4 1.4
7 *465:2 *465:3 0.124283
8 *465:1 *465:2 1.4
9 *1118:B0 *465:1 1.4
*END

*D_NET *466 0.000657861

*CONN
*I *954:A I *C 25.665 28.855 *L 0.00173 *D OR2X1
*I *1128:Y O *C 24.795 32.045 *L 0 *D NAND2XL

*CAP
1 *466:1 2.34394e-05
2 *466:2 2.34394e-05
3 *466:3 7.10977e-05
4 *466:4 7.10977e-05
5 *466:5 0.000234394
6 *466:6 0.000234394

*RES
1 *466:6 *1128:Y 1.4
2 *466:5 *466:6 1.24283
3 *466:4 *466:5 1.4
4 *466:3 *466:4 0.372866
5 *466:2 *466:3 1.4
6 *466:1 *466:2 0.124283
7 *954:A *466:1 1.4
*END

*D_NET *467 0.000635328

*CONN
*I *1046:B0 I *C 50.315 59.885 *L 0.0028 *D OAI21X1
*I *1127:Y O *C 51.765 59.595 *L 0 *D NAND2XL

*CAP
1 *467:1 7.5562e-05
2 *467:2 7.5562e-05
3 *467:3 0.000141352
4 *467:4 0.000141352
5 *467:5 0.000100749
6 *467:6 0.000100749

*RES
1 *467:6 *1127:Y 1.4
2 *467:5 *467:6 0.497155
3 *467:4 *467:5 1.4
4 *467:3 *467:4 0.621414
5 *467:2 *467:3 1.4
6 *467:1 *467:2 0.372866
7 *1046:B0 *467:1 1.4
*END

*D_NET *468 0.000982011

*CONN
*I *981:B0 I *C 48.285 47.415 *L 0.00278 *D AOI211X1
*I *1126:Y O *C 51.475 47.705 *L 0 *D AND2X1

*CAP
1 *468:1 7.55623e-05
2 *468:2 7.55623e-05
3 *468:3 0.000314693
4 *468:4 0.000314693
5 *468:5 0.00010075
6 *468:6 0.00010075

*RES
1 *468:6 *1126:Y 1.4
2 *468:5 *468:6 0.497151
3 *468:4 *468:5 1.4
4 *468:3 *468:4 1.36718
5 *468:2 *468:3 1.4
6 *468:1 *468:2 0.372863
7 *981:B0 *468:1 1.4
*END

*D_NET *469 0.0013489

*CONN
*I *1002:B0 I *C 18.415 68.005 *L 0.0028 *D OAI211X1
*I *1125:Y O *C 16.385 73.805 *L 0 *D NAND2XL

*CAP
1 *469:1 2.36274e-05
2 *469:2 2.36274e-05
3 *469:3 0.000154649
4 *469:4 0.000154649
5 *469:5 0.000496176
6 *469:6 0.000496176

*RES
1 *469:6 *1125:Y 1.4
2 *469:5 *469:6 2.60994
3 *469:4 *469:5 1.4
4 *469:3 *469:4 0.870021
5 *469:2 *469:3 1.4
6 *469:1 *469:2 0.124283
7 *1002:B0 *469:1 1.4
*END

*D_NET *470 0.00133676

*CONN
*I *1073:B0 I *C 23.925 62.785 *L 0.00277 *D AOI21X1
*I *1124:Y O *C 21.57 65.335 *L 0 *D NOR2BXL

*CAP
1 *470:1 4.72548e-05
2 *470:2 4.72548e-05
3 *470:3 0.000265112
4 *470:4 0.000265112
5 *470:5 0.000259902
6 *470:6 0.000259902
7 *470:7 8.83706e-05
8 *470:8 8.83706e-05
9 *470:9 4.88843e-06
10 *470:10 7.74001e-06
11 *470:11 2.85158e-06

*RES
1 *470:11 *1124:Y 1.4
2 *470:10 *470:11 0.0149996
3 *470:9 *470:10 0.0257137
4 *470:8 *470:9 1.4
5 *470:7 *470:8 0.497155
6 *470:6 *470:7 1.4
7 *470:5 *470:6 1.36711
8 *470:4 *470:5 1.4
9 *470:3 *470:4 1.49146
10 *470:2 *470:3 1.4
11 *470:1 *470:2 0.248565
12 *1073:B0 *470:1 1.4
*END

*D_NET *471 0.000523714

*CONN
*I *1011:B0 I *C 68.295 47.125 *L 0.0028 *D OAI211X1
*I *1123:Y O *C 70.035 47.705 *L 0 *D NAND2XL

*CAP
1 *471:1 7.20223e-05
2 *471:2 7.20223e-05
3 *471:3 0.000165827
4 *471:4 0.000165827
5 *471:5 2.40074e-05
6 *471:6 2.40074e-05

*RES
1 *471:6 *1123:Y 1.4
2 *471:5 *471:6 0.124283
3 *471:4 *471:5 1.4
4 *471:3 *471:4 0.745729
5 *471:2 *471:3 1.4
6 *471:1 *471:2 0.372848
7 *1011:B0 *471:1 1.4
*END

*D_NET *472 0.0021228

*CONN
*I *1051:C0 I *C 65.105 18.125 *L 0.00281 *D AOI211X1
*I *1122:Y O *C 55.825 21.605 *L 0 *D OAI21X1

*CAP
1 *472:2 0.000807377
2 *472:3 0.000807377
3 *472:4 0.000254024
4 *472:5 0.000254024

*RES
1 *472:5 *1122:Y 1.4
2 *472:4 *472:5 1.49146
3 *472:3 *472:4 1.4
4 *472:2 *472:3 3.97705
5 *472:1 *472:2 1.4
6 *1051:C0 *472:1 1.4
*END

*D_NET *473 0.00111747

*CONN
*I *1023:A1 I *C 20.155 23.055 *L 0.0028 *D AOI22X1
*I *1121:Y O *C 18.995 16.385 *L 0 *D MXI2XL

*CAP
1 *473:1 0.000471661
2 *473:2 0.000471661
3 *473:3 8.70747e-05
4 *473:4 8.70747e-05

*RES
1 *473:5 *1121:Y 1.4
2 *473:4 *473:5 1.4
3 *473:3 *473:4 0.497155
4 *473:2 *473:3 1.4
5 *473:1 *473:2 2.85852
6 *1023:A1 *473:1 1.4
*END

*D_NET *474 0.00185697

*CONN
*I *1023:B1 I *C 19.575 23.345 *L 0.00283 *D AOI22X1
*I *1120:Y O *C 8.845 21.605 *L 0 *D MXI2XL

*CAP
1 *474:2 0.000805441
2 *474:3 0.000805441
3 *474:4 0.000123042
4 *474:5 0.000123042

*RES
1 *474:5 *1120:Y 1.4
2 *474:4 *474:5 0.7457
3 *474:3 *474:4 1.4
4 *474:2 *474:3 4.59868
5 *474:1 *474:2 1.4
6 *1023:B1 *474:1 1.4
*END

*D_NET *475 0.000911613

*CONN
*I *1022:A1 I *C 43.355 23.635 *L 0.00277 *D OAI22X1
*I *1119:Y O *C 39.875 21.605 *L 0 *D MXI2XL

*CAP
1 *475:1 2.11568e-05
2 *475:2 2.11568e-05
3 *475:3 0.000282066
4 *475:4 0.000282066
5 *475:5 0.000126941
6 *475:6 0.000126941
7 *475:7 2.56424e-05
8 *475:8 2.56424e-05

*RES
1 *475:9 *1119:Y 1.4
2 *475:8 *475:9 1.4
3 *475:7 *475:8 0.124283
4 *475:6 *475:7 1.4
5 *475:5 *475:6 0.745729
6 *475:4 *475:5 1.4
7 *475:3 *475:4 1.36711
8 *475:2 *475:3 1.4
9 *475:1 *475:2 0.124288
10 *1022:A1 *475:1 1.4
*END

*D_NET *476 0.000401307

*CONN
*I *1022:B1 I *C 42.775 23.635 *L 0.00282 *D OAI22X1
*I *1118:Y O *C 40.745 23.345 *L 0 *D AOI21X1

*CAP
1 *476:2 0.000179497
2 *476:3 0.000179497
3 *476:4 2.11568e-05
4 *476:5 2.11568e-05

*RES
1 *476:5 *1118:Y 1.4
2 *476:4 *476:5 0.124288
3 *476:3 *476:4 1.4
4 *476:2 *476:3 0.869979
5 *476:1 *476:2 1.4
6 *1022:B1 *476:1 1.4
*END

*D_NET *477 0.00166918

*CONN
*I *1021:A1 I *C 22.475 26.825 *L 0.0028 *D AOI22X1
*I *1117:Y O *C 21.895 16.385 *L 0 *D MXI2XL

*CAP
1 *477:2 2.36992e-05
2 *477:3 2.36992e-05
3 *477:4 0.000725075
4 *477:5 0.000725075
5 *477:6 6.5306e-05
6 *477:7 6.5306e-05
7 *477:8 2.0507e-05
8 *477:9 2.0507e-05

*RES
1 *477:9 *1117:Y 1.4
2 *477:8 *477:9 0.124283
3 *477:7 *477:8 1.4
4 *477:6 *477:7 0.372866
5 *477:5 *477:6 1.4
6 *477:4 *477:5 4.34991
7 *477:3 *477:4 1.4
8 *477:2 *477:3 0.124289
9 *477:1 *477:2 1.4
10 *1021:A1 *477:1 1.4
*END

*D_NET *478 0.001373

*CONN
*I *1021:B1 I *C 21.895 26.535 *L 0.00283 *D AOI22X1
*I *1116:Y O *C 14.355 26.825 *L 0 *D MXI2XL

*CAP
1 *478:1 4.68787e-05
2 *478:2 4.68787e-05
3 *478:3 0.00061618
4 *478:4 0.00061618
5 *478:5 2.34394e-05
6 *478:6 2.34394e-05

*RES
1 *478:6 *1116:Y 1.4
2 *478:5 *478:6 0.124283
3 *478:4 *478:5 1.4
4 *478:3 *478:4 3.23151
5 *478:2 *478:3 1.4
6 *478:1 *478:2 0.248565
7 *1021:B1 *478:1 1.4
*END

*D_NET *479 0.000702683

*CONN
*I *991:B I *C 18.995 58.145 *L 0.00158 *D NAND4XL
*I *1115:Y O *C 19.575 54.375 *L 0 *D AOI22X1

*CAP
1 *479:2 2.20927e-05
2 *479:3 2.20927e-05
3 *479:4 0.000307156
4 *479:5 0.000307156
5 *479:6 2.20927e-05
6 *479:7 2.20927e-05

*RES
1 *479:8 *1115:Y 1.4
2 *479:7 *479:8 1.4
3 *479:6 *479:7 0.124289
4 *479:5 *479:6 1.4
5 *479:4 *479:5 1.61567
6 *479:3 *479:4 1.4
7 *479:2 *479:3 0.124289
8 *479:1 *479:2 1.4
9 *991:B *479:1 1.4
*END

*D_NET *480 0.00133296

*CONN
*I *1037:A I *C 48.285 86.275 *L 0.00157 *D NAND2XL
*I *1114:Y O *C 46.545 79.025 *L 0 *D AOI22X1

*CAP
1 *480:2 0.000152285
2 *480:3 0.000152285
3 *480:4 0.000514192
4 *480:5 0.000514192

*RES
1 *480:5 *1114:Y 1.4
2 *480:4 *480:5 3.10707
3 *480:3 *480:4 1.4
4 *480:2 *480:3 0.745697
5 *480:1 *480:2 1.4
6 *1037:A *480:1 1.4
*END

*D_NET *481 0.00144453

*CONN
*I *1018:A I *C 22.475 52.635 *L 0.00264 *D NAND3X1
*I *1113:Y O *C 27.405 49.155 *L 0 *D AOI22X1

*CAP
1 *481:1 7.06002e-05
2 *481:2 7.06002e-05
3 *481:3 0.000424979
4 *481:4 0.000424979
5 *481:5 0.000226687
6 *481:6 0.000226687

*RES
1 *481:6 *1113:Y 1.4
2 *481:5 *481:6 1.11859
3 *481:4 *481:5 1.4
4 *481:3 *481:4 2.11291
5 *481:2 *481:3 1.4
6 *481:1 *481:2 0.372848
7 *1018:A *481:1 1.4
*END

*D_NET *482 0.000824445

*CONN
*I *1037:B I *C 48.865 86.275 *L 0.00167 *D NAND2XL
*I *1112:Y O *C 45.095 85.695 *L 0 *D AOI22X1

*CAP
1 *482:1 2.05677e-05
2 *482:2 2.05677e-05
3 *482:3 0.000329952
4 *482:4 0.000329952
5 *482:5 6.17031e-05
6 *482:6 6.17031e-05

*RES
1 *482:6 *1112:Y 1.4
2 *482:5 *482:6 0.372848
3 *482:4 *482:5 1.4
4 *482:3 *482:4 1.61568
5 *482:2 *482:3 1.4
6 *482:1 *482:2 0.124283
7 *1037:B *482:1 1.4
*END

*D_NET *483 0.000536363

*CONN
*I *1018:B I *C 22.765 52.925 *L 0.00285 *D NAND3X1
*I *1111:Y O *C 25.665 52.925 *L 0 *D AOI22X1

*CAP
1 *483:1 2.36274e-05
2 *483:2 2.36274e-05
3 *483:3 0.000220927
4 *483:4 0.000220927
5 *483:5 2.36274e-05
6 *483:6 2.36274e-05

*RES
1 *483:6 *1111:Y 1.4
2 *483:5 *483:6 0.124283
3 *483:4 *483:5 1.4
4 *483:3 *483:4 1.24289
5 *483:2 *483:3 1.4
6 *483:1 *483:2 0.124283
7 *1018:B *483:1 1.4
*END

*D_NET *484 0.00113822

*CONN
*I *1015:A I *C 88.885 42.485 *L 0.00152 *D NAND4XL
*I *1110:Y O *C 86.565 38.715 *L 0 *D AOI22X1

*CAP
1 *484:1 4.45373e-05
2 *484:2 4.45373e-05
3 *484:3 0.000190541
4 *484:4 0.000190541
5 *484:5 0.00033403
6 *484:6 0.00033403

*RES
1 *484:6 *1110:Y 1.4
2 *484:5 *484:6 1.86432
3 *484:4 *484:5 1.4
4 *484:3 *484:4 0.994261
5 *484:2 *484:3 1.4
6 *484:1 *484:2 0.248576
7 *1015:A *484:1 1.4
*END

*D_NET *485 0.000480984

*CONN
*I *1036:B I *C 53.215 91.495 *L 0.00167 *D NAND2XL
*I *1109:Y O *C 50.895 90.915 *L 0 *D AOI22X1

*CAP
1 *485:2 0.000199357
2 *485:3 0.000199357
3 *485:4 4.11354e-05
4 *485:5 4.11354e-05

*RES
1 *485:5 *1109:Y 1.4
2 *485:4 *485:5 0.248565
3 *485:3 *485:4 1.4
4 *485:2 *485:3 0.994284
5 *485:1 *485:2 1.4
6 *1036:B *485:1 1.4
*END

*D_NET *486 0.00125048

*CONN
*I *1011:C0 I *C 68.585 47.705 *L 0.00287 *D OAI211X1
*I *1108:Y O *C 67.715 52.925 *L 0 *D AOI22X1

*CAP
1 *486:2 0.000138189
2 *486:3 0.000138189
3 *486:4 0.000432256
4 *486:5 0.000432256
5 *486:6 5.47942e-05
6 *486:7 5.47942e-05

*RES
1 *486:8 *1108:Y 1.4
2 *486:7 *486:8 1.4
3 *486:6 *486:7 0.248577
4 *486:5 *486:6 1.4
5 *486:4 *486:5 2.2371
6 *486:3 *486:4 1.4
7 *486:2 *486:3 0.621441
8 *486:1 *486:2 1.4
9 *1011:C0 *486:1 1.4
*END

*D_NET *487 0.000512045

*CONN
*I *1036:A I *C 53.795 91.495 *L 0.00157 *D NAND2XL
*I *1107:Y O *C 56.115 90.625 *L 0 *D AOI22XL

*CAP
1 *487:2 0.000194611
2 *487:3 0.000194611
3 *487:4 6.14113e-05
4 *487:5 6.14113e-05

*RES
1 *487:5 *1107:Y 1.4
2 *487:4 *487:5 0.372863
3 *487:3 *487:4 1.4
4 *487:2 *487:3 0.99431
5 *487:1 *487:2 1.4
6 *1036:A *487:1 1.4
*END

*D_NET *488 0.000238392

*CONN
*I *983:A I *C 22.475 80.475 *L 0.00152 *D NAND4XL
*I *1106:Y O *C 22.185 79.025 *L 0 *D AOI22X1

*CAP
1 *488:1 9.85721e-05
2 *488:2 9.85721e-05
3 *488:3 2.06241e-05
4 *488:4 2.06241e-05

*RES
1 *488:5 *1106:Y 1.4
2 *488:4 *488:5 1.4
3 *488:3 *488:4 0.124283
4 *488:2 *488:3 1.4
5 *488:1 *488:2 0.621439
6 *983:A *488:1 1.4
*END

*D_NET *489 0.000592941

*CONN
*I *993:A I *C 78.155 91.495 *L 0.00175 *D AND4X1
*I *1105:Y O *C 81.345 90.625 *L 0 *D AOI22XL

*CAP
1 *489:1 6.14113e-05
2 *489:2 6.14113e-05
3 *489:3 0.000235059
4 *489:4 0.000235059

*RES
1 *489:5 *1105:Y 1.4
2 *489:4 *489:5 1.4
3 *489:3 *489:4 1.36718
4 *489:2 *489:3 1.4
5 *489:1 *489:2 0.372863
6 *993:A *489:1 1.4
*END

*D_NET *490 0.00165265

*CONN
*I *998:A I *C 57.275 28.855 *L 0.00157 *D NAND2XL
*I *1104:Y O *C 61.915 33.495 *L 0 *D AOI22X1

*CAP
1 *490:1 0.000360112
2 *490:2 0.000360112
3 *490:3 0.000442206
4 *490:4 0.000442206
5 *490:5 2.40074e-05
6 *490:6 2.40074e-05

*RES
1 *490:6 *1104:Y 1.4
2 *490:5 *490:6 0.124283
3 *490:4 *490:5 1.4
4 *490:3 *490:4 1.98861
5 *490:2 *490:3 1.4
6 *490:1 *490:2 1.86424
7 *998:A *490:1 1.4
*END

*D_NET *491 0.00184958

*CONN
*I *993:B I *C 78.735 91.495 *L 0.00178 *D AND4X1
*I *1103:Y O *C 89.755 89.755 *L 0 *D AOI22XL

*CAP
1 *491:1 0.000118117
2 *491:2 0.000118117
3 *491:3 0.000806671
4 *491:4 0.000806671

*RES
1 *491:5 *1103:Y 1.4
2 *491:4 *491:5 1.4
3 *491:3 *491:4 4.72297
4 *491:2 *491:3 1.4
5 *491:1 *491:2 0.745696
6 *993:B *491:1 1.4
*END

*D_NET *492 0.00281539

*CONN
*I *1034:B I *C 71.775 91.495 *L 0.00167 *D NAND2XL
*I *1102:Y O *C 65.975 80.185 *L 0 *D AOI22XL

*CAP
1 *492:1 6.14113e-05
2 *492:2 6.14113e-05
3 *492:3 0.000462202
4 *492:4 0.000462202
5 *492:5 0.000859757
6 *492:6 0.000859757
7 *492:7 2.43264e-05
8 *492:8 2.43264e-05

*RES
1 *492:9 *1102:Y 1.4
2 *492:8 *492:9 1.4
3 *492:7 *492:8 0.124289
4 *492:6 *492:7 1.4
5 *492:5 *492:6 5.22009
6 *492:4 *492:5 1.4
7 *492:3 *492:4 2.36149
8 *492:2 *492:3 1.4
9 *492:1 *492:2 0.372863
10 *1034:B *492:1 1.4
*END

*D_NET *493 0.000552986

*CONN
*I *1034:A I *C 71.195 91.495 *L 0.00157 *D NAND2XL
*I *1101:Y O *C 68.875 90.915 *L 0 *D AOI22X1

*CAP
1 *493:1 2.04704e-05
2 *493:2 2.04704e-05
3 *493:3 0.000194611
4 *493:4 0.000194611
5 *493:5 6.14113e-05
6 *493:6 6.14113e-05

*RES
1 *493:6 *1101:Y 1.4
2 *493:5 *493:6 0.372863
3 *493:4 *493:5 1.4
4 *493:3 *493:4 0.99431
5 *493:2 *493:3 1.4
6 *493:1 *493:2 0.124288
7 *1034:A *493:1 1.4
*END

*D_NET *494 0.000609965

*CONN
*I *1015:D I *C 89.755 42.195 *L 0.00166 *D NAND4XL
*I *1100:Y O *C 92.655 42.485 *L 0 *D AOI22X1

*CAP
1 *494:1 2.22686e-05
2 *494:2 2.22686e-05
3 *494:3 0.000238177
4 *494:4 0.000238177
5 *494:5 4.45373e-05
6 *494:6 4.45373e-05

*RES
1 *494:6 *1100:Y 1.4
2 *494:5 *494:6 0.248576
3 *494:4 *494:5 1.4
4 *494:3 *494:4 1.24283
5 *494:2 *494:3 1.4
6 *494:1 *494:2 0.124288
7 *1015:D *494:1 1.4
*END

*D_NET *495 0.000548849

*CONN
*I *1013:C I *C 86.565 78.735 *L 0.00164 *D NAND4XL
*I *1099:Y O *C 90.045 79.025 *L 0 *D AOI22X1

*CAP
1 *495:2 0.000254738
2 *495:3 0.000254738
3 *495:4 1.96862e-05
4 *495:5 1.96862e-05

*RES
1 *495:5 *1099:Y 1.4
2 *495:4 *495:5 0.124283
3 *495:3 *495:4 1.4
4 *495:2 *495:3 1.49146
5 *495:1 *495:2 1.4
6 *1013:C *495:1 1.4
*END

*D_NET *496 0.00103293

*CONN
*I *1013:B I *C 86.855 79.025 *L 0.00158 *D NAND4XL
*I *1098:Y O *C 85.985 85.695 *L 0 *D AOI22X1

*CAP
1 *496:2 4.24564e-05
2 *496:3 4.24564e-05
3 *496:4 0.000452782
4 *496:5 0.000452782
5 *496:6 2.12282e-05
6 *496:7 2.12282e-05

*RES
1 *496:8 *1098:Y 1.4
2 *496:7 *496:8 1.4
3 *496:6 *496:7 0.124289
4 *496:5 *496:6 1.4
5 *496:4 *496:5 2.8585
6 *496:3 *496:4 1.4
7 *496:2 *496:3 0.248578
8 *496:1 *496:2 1.4
9 *1013:B *496:1 1.4
*END

*D_NET *497 0.000487701

*CONN
*I *1010:B I *C 16.675 88.885 *L 0.00167 *D NAND2XL
*I *1097:Y O *C 18.995 89.465 *L 0 *D AOI22X1

*CAP
1 *497:1 1.97144e-05
2 *497:2 1.97144e-05
3 *497:3 0.000164993
4 *497:4 0.000164993
5 *497:5 5.91433e-05
6 *497:6 5.91433e-05

*RES
1 *497:6 *1097:Y 1.4
2 *497:5 *497:6 0.372863
3 *497:4 *497:5 1.4
4 *497:3 *497:4 0.994265
5 *497:2 *497:3 1.4
6 *497:1 *497:2 0.124288
7 *1010:B *497:1 1.4
*END

*D_NET *498 0.000806671

*CONN
*I *1013:A I *C 87.145 79.025 *L 0.00152 *D NAND4XL
*I *1096:Y O *C 92.655 79.025 *L 0 *D AOI22X1

*CAP
1 *498:2 0.000403336
2 *498:3 0.000403336

*RES
1 *498:4 *1096:Y 1.4
2 *498:3 *498:4 1.4
3 *498:2 *498:3 2.36149
4 *498:1 *498:2 1.4
5 *1013:A *498:1 1.4
*END

*D_NET *499 0.000758047

*CONN
*I *1013:D I *C 86.275 78.735 *L 0.00166 *D NAND4XL
*I *1095:Y O *C 81.635 79.315 *L 0 *D AOI22XL

*CAP
1 *499:1 3.93724e-05
2 *499:2 3.93724e-05
3 *499:3 0.000339651
4 *499:4 0.000339651

*RES
1 *499:5 *1095:Y 1.4
2 *499:4 *499:5 1.4
3 *499:3 *499:4 1.98862
4 *499:2 *499:3 1.4
5 *499:1 *499:2 0.248565
6 *1013:D *499:1 1.4
*END

*D_NET *500 0.000602018

*CONN
*I *1033:A I *C 45.095 47.125 *L 0.00157 *D NAND2XL
*I *1094:Y O *C 43.065 47.705 *L 0 *D AOI22X1

*CAP
1 *500:1 2.51874e-05
2 *500:2 2.51874e-05
3 *500:3 0.000200259
4 *500:4 0.000200259
5 *500:5 7.55623e-05
6 *500:6 7.55623e-05

*RES
1 *500:6 *1094:Y 1.4
2 *500:5 *500:6 0.372863
3 *500:4 *500:5 1.4
4 *500:3 *500:4 0.870021
5 *500:2 *500:3 1.4
6 *500:1 *500:2 0.124288
7 *1033:A *500:1 1.4
*END

*D_NET *501 0.00174221

*CONN
*I *1017:B I *C 82.505 85.695 *L 0.00158 *D NAND4XL
*I *1093:Y O *C 78.155 79.025 *L 0 *D AOI22X1

*CAP
1 *501:1 3.93724e-05
2 *501:2 3.93724e-05
3 *501:3 0.000319972
4 *501:4 0.000319972
5 *501:5 0.00051176
6 *501:6 0.00051176

*RES
1 *501:6 *1093:Y 1.4
2 *501:5 *501:6 3.10719
3 *501:4 *501:5 1.4
4 *501:3 *501:4 1.86433
5 *501:2 *501:3 1.4
6 *501:1 *501:2 0.248565
7 *1017:B *501:1 1.4
*END

*D_NET *502 0.0017117

*CONN
*I *1033:B I *C 45.675 47.125 *L 0.00167 *D NAND2XL
*I *1092:Y O *C 47.995 54.375 *L 0 *D AOI22X1

*CAP
1 *502:1 0.000629685
2 *502:2 0.000629685
3 *502:3 0.000226164
4 *502:4 0.000226164

*RES
1 *502:5 *1092:Y 1.4
2 *502:4 *502:5 1.4
3 *502:3 *502:4 0.994263
4 *502:2 *502:3 1.4
5 *502:1 *502:2 3.1072
6 *1033:B *502:1 1.4
*END

*D_NET *503 0.00258297

*CONN
*I *1017:A I *C 82.215 85.695 *L 0.00152 *D NAND4XL
*I *1091:Y O *C 66.555 85.405 *L 0 *D AOI22XL

*CAP
1 *503:1 1.96862e-05
2 *503:2 1.96862e-05
3 *503:3 0.0012718
4 *503:4 0.0012718

*RES
1 *503:5 *1091:Y 1.4
2 *503:4 *503:5 1.4
3 *503:3 *503:4 6.71159
4 *503:2 *503:3 1.4
5 *503:1 *503:2 0.124283
6 *1017:A *503:1 1.4
*END

*D_NET *504 0.000591305

*CONN
*I *1017:C I *C 82.795 85.985 *L 0.00164 *D NAND4XL
*I *1090:Y O *C 79.025 85.695 *L 0 *D AOI22X1

*CAP
1 *504:1 1.96862e-05
2 *504:2 1.96862e-05
3 *504:3 0.000275966
4 *504:4 0.000275966

*RES
1 *504:5 *1090:Y 1.4
2 *504:4 *504:5 1.4
3 *504:3 *504:4 1.61575
4 *504:2 *504:3 1.4
5 *504:1 *504:2 0.124283
6 *1017:C *504:1 1.4
*END

*D_NET *505 0.0015593

*CONN
*I *1032:B I *C 56.405 49.735 *L 0.00167 *D NAND2XL
*I *1089:Y O *C 57.275 58.145 *L 0 *D AOI22X1

*CAP
1 *505:2 2.76379e-05
2 *505:3 2.76379e-05
3 *505:4 0.000697219
4 *505:5 0.000697219
5 *505:6 5.47942e-05
6 *505:7 5.47942e-05

*RES
1 *505:8 *1089:Y 1.4
2 *505:7 *505:8 1.4
3 *505:6 *505:7 0.248577
4 *505:5 *505:6 1.4
5 *505:4 *505:5 3.60432
6 *505:3 *505:4 1.4
7 *505:2 *505:3 0.124288
8 *505:1 *505:2 1.4
9 *1032:B *505:1 1.4
*END

*D_NET *506 0.00187353

*CONN
*I *1017:D I *C 83.085 85.985 *L 0.00166 *D NAND4XL
*I *1088:Y O *C 92.655 89.465 *L 0 *D AOI22X1

*CAP
1 *506:2 0.000679302
2 *506:3 0.000679302
3 *506:4 0.000236234
4 *506:5 0.000236234
5 *506:6 2.12282e-05
6 *506:7 2.12282e-05

*RES
1 *506:8 *1088:Y 1.4
2 *506:7 *506:8 1.4
3 *506:6 *506:7 0.124289
4 *506:5 *506:6 1.4
5 *506:4 *506:5 1.49139
6 *506:3 *506:4 1.4
7 *506:2 *506:3 3.97724
8 *506:1 *506:2 1.4
9 *1017:D *506:1 1.4
*END

*D_NET *507 0.000365148

*CONN
*I *1032:A I *C 56.985 49.735 *L 0.00157 *D NAND2XL
*I *1087:Y O *C 58.145 48.865 *L 0 *D AOI22XL

*CAP
1 *507:2 0.000110551
2 *507:3 0.000110551
3 *507:4 7.20223e-05
4 *507:5 7.20223e-05

*RES
1 *507:5 *1087:Y 1.4
2 *507:4 *507:5 0.372848
3 *507:3 *507:4 1.4
4 *507:2 *507:3 0.497153
5 *507:1 *507:2 1.4
6 *1032:A *507:1 1.4
*END

*D_NET *508 0.00175567

*CONN
*I *1014:A I *C 41.035 85.695 *L 0.00152 *D NAND4XL
*I *1086:Y O *C 35.235 80.475 *L 0 *D AOI22X1

*CAP
1 *508:1 2.05677e-05
2 *508:2 2.05677e-05
3 *508:3 0.000507618
4 *508:4 0.000507618
5 *508:5 0.000349651
6 *508:6 0.000349651

*RES
1 *508:6 *1086:Y 1.4
2 *508:5 *508:6 2.11281
3 *508:4 *508:5 1.4
4 *508:3 *508:4 2.48566
5 *508:2 *508:3 1.4
6 *508:1 *508:2 0.124283
7 *1014:A *508:1 1.4
*END

*D_NET *509 0.00137409

*CONN
*I *1044:B0 I *C 13.485 78.445 *L 0.00277 *D AOI21X1
*I *1085:Y O *C 11.455 72.935 *L 0 *D NOR2XL

*CAP
1 *509:2 4.12482e-05
2 *509:3 4.12482e-05
3 *509:4 0.000423337
4 *509:5 0.000423337
5 *509:6 0.000198834
6 *509:7 0.000198834
7 *509:8 2.36274e-05
8 *509:9 2.36274e-05

*RES
1 *509:9 *1085:Y 1.4
2 *509:8 *509:9 0.124283
3 *509:7 *509:8 1.4
4 *509:6 *509:7 1.1186
5 *509:5 *509:6 1.4
6 *509:4 *509:5 2.23709
7 *509:3 *509:4 1.4
8 *509:2 *509:3 0.248566
9 *509:1 *509:2 1.4
10 *1044:B0 *509:1 1.4
*END

*D_NET *510 0.0014126

*CONN
*I *1014:B I *C 41.325 85.695 *L 0.00158 *D NAND4XL
*I *1084:Y O *C 38.425 80.475 *L 0 *D AOI22X1

*CAP
1 *510:1 0.000411354
2 *510:2 0.000411354
3 *510:3 0.000253809
4 *510:4 0.000253809
5 *510:5 4.11354e-05
6 *510:6 4.11354e-05

*RES
1 *510:6 *1084:Y 1.4
2 *510:5 *510:6 0.248565
3 *510:4 *510:5 1.4
4 *510:3 *510:4 1.24283
5 *510:2 *510:3 1.4
6 *510:1 *510:2 2.48565
7 *1014:B *510:1 1.4
*END

*D_NET *511 0.00148787

*CONN
*I *1014:C I *C 41.615 85.985 *L 0.00164 *D NAND4XL
*I *1083:Y O *C 40.165 94.685 *L 0 *D AOI22X1

*CAP
1 *511:1 0.000617031
2 *511:2 0.000617031
3 *511:3 0.000126905
4 *511:4 0.000126905

*RES
1 *511:5 *1083:Y 1.4
2 *511:4 *511:5 1.4
3 *511:3 *511:4 0.621414
4 *511:2 *511:3 1.4
5 *511:1 *511:2 3.72848
6 *1014:C *511:1 1.4
*END

*D_NET *512 0.000780826

*CONN
*I *1020:C I *C 60.175 83.955 *L 0.00164 *D NAND4XL
*I *1082:Y O *C 63.365 85.695 *L 0 *D AOI22X1

*CAP
1 *512:2 0.000267591
2 *512:3 0.000267591
3 *512:4 0.000122823
4 *512:5 0.000122823

*RES
1 *512:5 *1082:Y 1.4
2 *512:4 *512:5 0.745727
3 *512:3 *512:4 1.4
4 *512:2 *512:3 1.36718
5 *512:1 *512:2 1.4
6 *1020:C *512:1 1.4
*END

*D_NET *513 0.000714369

*CONN
*I *1020:D I *C 60.465 83.955 *L 0.00166 *D NAND4XL
*I *1081:Y O *C 56.695 84.535 *L 0 *D AOI22XL

*CAP
1 *513:1 4.09408e-05
2 *513:2 4.09408e-05
3 *513:3 0.000316244
4 *513:4 0.000316244

*RES
1 *513:5 *1081:Y 1.4
2 *513:4 *513:5 1.4
3 *513:3 *513:4 1.61575
4 *513:2 *513:3 1.4
5 *513:1 *513:2 0.248576
6 *1020:D *513:1 1.4
*END

*D_NET *514 0.00188785

*CONN
*I *1020:B I *C 59.885 84.245 *L 0.00158 *D NAND4XL
*I *1080:Y O *C 52.055 80.185 *L 0 *D AOI22XL

*CAP
1 *514:1 0.000286586
2 *514:2 0.000286586
3 *514:3 0.000657341
4 *514:4 0.000657341

*RES
1 *514:5 *1080:Y 1.4
2 *514:4 *514:5 1.4
3 *514:3 *514:4 3.35579
4 *514:2 *514:3 1.4
5 *514:1 *514:2 1.74003
6 *1020:B *514:1 1.4
*END

*D_NET *515 0.000737597

*CONN
*I *1008:B I *C 81.345 57.565 *L 0.00167 *D NAND2XL
*I *1079:Y O *C 84.825 58.145 *L 0 *D AOI22X1

*CAP
1 *515:1 2.33514e-05
2 *515:2 2.33514e-05
3 *515:3 0.000275393
4 *515:4 0.000275393
5 *515:5 7.00542e-05
6 *515:6 7.00542e-05

*RES
1 *515:6 *1079:Y 1.4
2 *515:5 *515:6 0.372854
3 *515:4 *515:5 1.4
4 *515:3 *515:4 1.49146
5 *515:2 *515:3 1.4
6 *515:1 *515:2 0.124285
7 *1008:B *515:1 1.4
*END

*D_NET *516 0.00106773

*CONN
*I *1007:A I *C 85.985 54.955 *L 0.00157 *D NAND2XL
*I *1078:Y O *C 88.305 58.145 *L 0 *D AOI22X1

*CAP
1 *516:2 4.58988e-05
2 *516:3 4.58988e-05
3 *516:4 0.000303568
4 *516:5 0.000303568
5 *516:6 0.000137696
6 *516:7 0.000137696
7 *516:8 4.67028e-05
8 *516:9 4.67028e-05

*RES
1 *516:9 *1078:Y 1.4
2 *516:8 *516:9 0.248569
3 *516:7 *516:8 1.4
4 *516:6 *516:7 0.745732
5 *516:5 *516:6 1.4
6 *516:4 *516:5 1.6157
7 *516:3 *516:4 1.4
8 *516:2 *516:3 0.248578
9 *516:1 *516:2 1.4
10 *1007:A *516:1 1.4
*END

*D_NET *517 0.0013176

*CONN
*I *1024:B I *C 91.205 54.955 *L 0.00167 *D NAND2XL
*I *1077:Y O *C 92.365 47.705 *L 0 *D AOI22X1

*CAP
1 *517:2 9.17977e-05
2 *517:3 9.17977e-05
3 *517:4 0.000567002
4 *517:5 0.000567002

*RES
1 *517:5 *1077:Y 1.4
2 *517:4 *517:5 3.10716
3 *517:3 *517:4 1.4
4 *517:2 *517:3 0.497155
5 *517:1 *517:2 1.4
6 *1024:B *517:1 1.4
*END

*D_NET *518 0.000602313

*CONN
*I *1024:A I *C 90.625 54.955 *L 0.00157 *D NAND2XL
*I *1076:Y O *C 88.885 52.925 *L 0 *D AOI22X1

*CAP
1 *518:2 0.000114747
2 *518:3 0.000114747
3 *518:4 0.00016346
4 *518:5 0.00016346
5 *518:6 2.29494e-05
6 *518:7 2.29494e-05

*RES
1 *518:8 *1076:Y 1.4
2 *518:7 *518:8 1.4
3 *518:6 *518:7 0.124289
4 *518:5 *518:6 1.4
5 *518:4 *518:5 0.869992
6 *518:3 *518:4 1.4
7 *518:2 *518:3 0.621444
8 *518:1 *518:2 1.4
9 *1024:A *518:1 1.4
*END

*D_NET *519 0.00143171

*CONN
*I *1030:B I *C 85.405 65.395 *L 0.00167 *D NAND2XL
*I *1075:Y O *C 79.605 63.365 *L 0 *D AOI22X1

*CAP
1 *519:1 0.000210163
2 *519:2 0.000210163
3 *519:3 0.000458988
4 *519:4 0.000458988
5 *519:5 4.67028e-05
6 *519:6 4.67028e-05

*RES
1 *519:6 *1075:Y 1.4
2 *519:5 *519:6 0.248569
3 *519:4 *519:5 1.4
4 *519:3 *519:4 2.48577
5 *519:2 *519:3 1.4
6 *519:1 *519:2 1.11856
7 *1030:B *519:1 1.4
*END

*D_NET *520 0.000514535

*CONN
*I *988:B I *C 74.095 63.365 *L 0.00158 *D NAND4XL
*I *1074:Y O *C 72.645 64.815 *L 0 *D AOI22X1

*CAP
1 *520:2 0.000109588
2 *520:3 0.000109588
3 *520:4 0.000120282
4 *520:5 0.000120282
5 *520:6 2.73971e-05
6 *520:7 2.73971e-05

*RES
1 *520:8 *1074:Y 1.4
2 *520:7 *520:8 1.4
3 *520:6 *520:7 0.124289
4 *520:5 *520:6 1.4
5 *520:4 *520:5 0.621444
6 *520:3 *520:4 1.4
7 *520:2 *520:3 0.497155
8 *520:1 *520:2 1.4
9 *988:B *520:1 1.4
*END

*D_NET *521 0.00178769

*CONN
*I *1002:C0 I *C 18.705 68.585 *L 0.00287 *D OAI211X1
*I *1073:Y O *C 23.345 63.075 *L 0 *D AOI21X1

*CAP
1 *521:2 2.20927e-05
2 *521:3 2.20927e-05
3 *521:4 0.000472548
4 *521:5 0.000472548
5 *521:6 0.000375575
6 *521:7 0.000375575
7 *521:8 2.36274e-05
8 *521:9 2.36274e-05

*RES
1 *521:9 *1073:Y 1.4
2 *521:8 *521:9 0.124283
3 *521:7 *521:8 1.4
4 *521:6 *521:7 2.11291
5 *521:5 *521:6 1.4
6 *521:4 *521:5 2.48565
7 *521:3 *521:4 1.4
8 *521:2 *521:3 0.124289
9 *521:1 *521:2 1.4
10 *1002:C0 *521:1 1.4
*END

*D_NET *522 0.00155029

*CONN
*I *988:A I *C 73.805 63.365 *L 0.00152 *D NAND4XL
*I *1072:Y O *C 69.165 59.305 *L 0 *D AOI22XL

*CAP
1 *522:1 0.000336789
2 *522:2 0.000336789
3 *522:3 0.000438353
4 *522:4 0.000438353

*RES
1 *522:5 *1072:Y 1.4
2 *522:4 *522:5 1.4
3 *522:3 *522:4 1.98862
4 *522:2 *522:3 1.4
5 *522:1 *522:2 1.74004
6 *988:A *522:1 1.4
*END

*D_NET *523 0.0010613

*CONN
*I *1030:A I *C 85.985 65.395 *L 0.00157 *D NAND2XL
*I *1071:Y O *C 90.625 63.365 *L 0 *D AOI22X1

*CAP
1 *523:1 0.00016346
2 *523:2 0.00016346
3 *523:3 0.000367191
4 *523:4 0.000367191

*RES
1 *523:5 *1071:Y 1.4
2 *523:4 *523:5 1.4
3 *523:3 *523:4 1.98862
4 *523:2 *523:3 1.4
5 *523:1 *523:2 0.869992
6 *1030:A *523:1 1.4
*END

*D_NET *524 0.000487239

*CONN
*I *1028:A I *C 25.955 70.615 *L 0.00157 *D NAND2XL
*I *1070:Y O *C 27.985 70.035 *L 0 *D AOI22X1

*CAP
1 *524:1 2.36274e-05
2 *524:2 2.36274e-05
3 *524:3 0.000194805
4 *524:4 0.000194805
5 *524:5 2.51873e-05
6 *524:6 2.51873e-05

*RES
1 *524:6 *1070:Y 1.4
2 *524:5 *524:6 0.124289
3 *524:4 *524:5 1.4
4 *524:3 *524:4 0.869983
5 *524:2 *524:3 1.4
6 *524:1 *524:2 0.124283
7 *1028:A *524:1 1.4
*END

*D_NET *525 0.00335142

*CONN
*I *1028:B I *C 25.375 70.615 *L 0.00167 *D NAND2XL
*I *1069:Y O *C 27.695 90.915 *L 0 *D AOI22X1

*CAP
1 *525:1 0.00146399
2 *525:2 0.00146399
3 *525:3 0.000191155
4 *525:4 0.000191155
5 *525:5 2.05677e-05
6 *525:6 2.05677e-05

*RES
1 *525:6 *1069:Y 1.4
2 *525:5 *525:6 0.124283
3 *525:4 *525:5 1.4
4 *525:3 *525:4 0.994264
5 *525:2 *525:3 1.4
6 *525:1 *525:2 8.57572
7 *1028:B *525:1 1.4
*END

*D_NET *526 0.000941479

*CONN
*I *1015:C I *C 89.465 42.195 *L 0.00164 *D NAND4XL
*I *1068:Y O *C 90.045 47.705 *L 0 *D AOI22X1

*CAP
1 *526:2 4.76353e-05
2 *526:3 4.76353e-05
3 *526:4 0.000423104
4 *526:5 0.000423104

*RES
1 *526:5 *1068:Y 1.4
2 *526:4 *526:5 2.36147
3 *526:3 *526:4 1.4
4 *526:2 *526:3 0.248565
5 *526:1 *526:2 1.4
6 *1015:C *526:1 1.4
*END

*D_NET *527 0.000598293

*CONN
*I *984:A I *C 82.215 70.035 *L 0.00152 *D NAND4XL
*I *1067:Y O *C 79.025 70.035 *L 0 *D AOI22X1

*CAP
1 *527:1 2.33514e-05
2 *527:2 2.33514e-05
3 *527:3 0.000252444
4 *527:4 0.000252444
5 *527:5 2.33514e-05
6 *527:6 2.33514e-05

*RES
1 *527:6 *1067:Y 1.4
2 *527:5 *527:6 0.124285
3 *527:4 *527:5 1.4
4 *527:3 *527:4 1.36718
5 *527:2 *527:3 1.4
6 *527:1 *527:2 0.124285
7 *984:A *527:1 1.4
*END

*D_NET *528 0.0046474

*CONN
*I *1040:B0 I *C 21.605 68.295 *L 0.00166 *D AOI21XL
*I *1066:Y O *C 36.105 57.275 *L 0 *D OAI22XL

*CAP
1 *528:1 2.36274e-05
2 *528:2 2.36274e-05
3 *528:3 0.00131777
4 *528:4 0.00131777
5 *528:5 0.000982306
6 *528:6 0.000982306

*RES
1 *528:6 *1066:Y 1.4
2 *528:5 *528:6 4.84726
3 *528:4 *528:5 1.4
4 *528:3 *528:4 6.21423
5 *528:2 *528:3 1.4
6 *528:1 *528:2 0.124283
7 *1040:B0 *528:1 1.4
*END

*D_NET *529 0.000644192

*CONN
*I *984:B I *C 82.505 70.035 *L 0.00158 *D NAND4XL
*I *1065:Y O *C 85.985 70.035 *L 0 *D AOI22X1

*CAP
1 *529:1 2.33514e-05
2 *529:2 2.33514e-05
3 *529:3 0.000275393
4 *529:4 0.000275393
5 *529:5 2.33514e-05
6 *529:6 2.33514e-05

*RES
1 *529:6 *1065:Y 1.4
2 *529:5 *529:6 0.124285
3 *529:4 *529:5 1.4
4 *529:3 *529:4 1.49146
5 *529:2 *529:3 1.4
6 *529:1 *529:2 0.124285
7 *984:B *529:1 1.4
*END

*D_NET *530 0.00121142

*CONN
*I *991:C I *C 19.285 57.855 *L 0.00164 *D NAND4XL
*I *1064:Y O *C 13.195 59.595 *L 0 *D AOI22X1

*CAP
1 *530:1 4.72548e-05
2 *530:2 4.72548e-05
3 *530:3 0.000463946
4 *530:4 0.000463946
5 *530:5 9.45097e-05
6 *530:6 9.45097e-05

*RES
1 *530:6 *1064:Y 1.4
2 *530:5 *530:6 0.497131
3 *530:4 *530:5 1.4
4 *530:3 *530:4 2.61006
5 *530:2 *530:3 1.4
6 *530:1 *530:2 0.248565
7 *991:C *530:1 1.4
*END

*D_NET *531 0.00161883

*CONN
*I *1015:B I *C 89.175 42.485 *L 0.00158 *D NAND4XL
*I *1063:Y O *C 90.625 33.495 *L 0 *D AOI22X1

*CAP
1 *531:1 0.000578985
2 *531:2 0.000578985
3 *531:3 0.000119088
4 *531:4 0.000119088
5 *531:5 0.000111343
6 *531:6 0.000111343

*RES
1 *531:6 *1063:Y 1.4
2 *531:5 *531:6 0.621439
3 *531:4 *531:5 1.4
4 *531:3 *531:4 0.621413
5 *531:2 *531:3 1.4
6 *531:1 *531:2 3.23148
7 *1015:B *531:1 1.4
*END

*D_NET *532 0.000533293

*CONN
*I *991:D I *C 19.575 57.855 *L 0.00166 *D NAND4XL
*I *1062:Y O *C 22.765 58.145 *L 0 *D AOI22X1

*CAP
1 *532:1 2.36274e-05
2 *532:2 2.36274e-05
3 *532:3 0.000243019
4 *532:4 0.000243019

*RES
1 *532:5 *1062:Y 1.4
2 *532:4 *532:5 1.4
3 *532:3 *532:4 1.36718
4 *532:2 *532:3 1.4
5 *532:1 *532:2 0.124283
6 *991:D *532:1 1.4
*END

*D_NET *533 0.00058344

*CONN
*I *1050:B0 I *C 66.845 26.245 *L 0.00277 *D AOI21X1
*I *1061:Y O *C 67.135 29.435 *L 0 *D OAI22X1

*CAP
1 *533:1 0.000264082
2 *533:2 0.000264082
3 *533:3 2.76379e-05
4 *533:4 2.76379e-05

*RES
1 *533:5 *1061:Y 1.4
2 *533:4 *533:5 1.4
3 *533:3 *533:4 0.124288
4 *533:2 *533:3 1.4
5 *533:1 *533:2 1.36711
6 *1050:B0 *533:1 1.4
*END

*D_NET *534 0.00189534

*CONN
*I *1000:B1 I *C 66.555 23.635 *L 0.00282 *D OAI22X1
*I *1060:Y O *C 67.135 12.615 *L 0 *D AOI221X1

*CAP
1 *534:2 2.52305e-05
2 *534:3 2.52305e-05
3 *534:4 0.000825578
4 *534:5 0.000825578
5 *534:6 7.56916e-05
6 *534:7 7.56916e-05
7 *534:8 2.11687e-05
8 *534:9 2.11687e-05

*RES
1 *534:9 *1060:Y 1.4
2 *534:8 *534:9 0.124289
3 *534:7 *534:8 1.4
4 *534:6 *534:7 0.372848
5 *534:5 *534:6 1.4
6 *534:4 *534:5 4.84726
7 *534:3 *534:4 1.4
8 *534:2 *534:3 0.124283
9 *534:1 *534:2 1.4
10 *1000:B1 *534:1 1.4
*END

*D_NET *535 0.00160324

*CONN
*I *1027:B I *C 51.475 26.245 *L 0.00171 *D NOR2XL
*I *1059:Y O *C 47.995 28.275 *L 0 *D AOI221X1

*CAP
1 *535:1 2.31721e-05
2 *535:2 2.31721e-05
3 *535:3 0.00043592
4 *535:4 0.00043592
5 *535:5 0.000199484
6 *535:6 0.000199484
7 *535:7 0.000143042
8 *535:8 0.000143042

*RES
1 *535:9 *1059:Y 1.4
2 *535:8 *535:9 1.4
3 *535:7 *535:8 0.621444
4 *535:6 *535:7 1.4
5 *535:5 *535:6 0.994302
6 *535:4 *535:5 1.4
7 *535:3 *535:4 2.11281
8 *535:2 *535:3 1.4
9 *535:1 *535:2 0.124288
10 *1027:B *535:1 1.4
*END

*D_NET *536 0.000434945

*CONN
*I *1025:B I *C 56.405 39.295 *L 0.00171 *D NOR2XL
*I *1058:Y O *C 58.435 39.005 *L 0 *D AOI21X1

*CAP
1 *536:2 0.000193465
2 *536:3 0.000193465
3 *536:4 2.40074e-05
4 *536:5 2.40074e-05

*RES
1 *536:5 *1058:Y 1.4
2 *536:4 *536:5 0.124283
3 *536:3 *536:4 1.4
4 *536:2 *536:3 0.870018
5 *536:1 *536:2 1.4
6 *1025:B *536:1 1.4
*END

*D_NET *537 0.00190795

*CONN
*I *1020:A I *C 59.595 84.245 *L 0.00152 *D NAND4XL
*I *1057:Y O *C 58.18 73.545 *L 0 *D AOI32XL

*CAP
1 *537:1 0.000768461
2 *537:2 0.000768461
3 *537:3 0.000136985
4 *537:4 0.000136985
5 *537:5 4.56242e-05
6 *537:6 4.85275e-05
7 *537:7 2.90336e-06

*RES
1 *537:7 *1057:Y 1.4
2 *537:6 *537:7 0.0150004
3 *537:5 *537:6 0.23572
4 *537:4 *537:5 1.4
5 *537:3 *537:4 0.621444
6 *537:2 *537:3 1.4
7 *537:1 *537:2 4.35009
8 *1020:A *537:1 1.4
*END

*D_NET *538 0.000433545

*CONN
*I *1004:A1 I *C 55.535 23.635 *L 0.00277 *D OAI22X1
*I *1056:Y O *C 55.525 26.535 *L 0 *D NOR2BX1

*CAP
1 *538:1 0.000215945
2 *538:2 0.000216773
3 *538:3 8.27843e-07

*RES
1 *538:3 *1056:Y 1.4
2 *538:2 *538:3 0.00428561
3 *538:1 *538:2 1.24288
4 *1004:A1 *538:1 1.4
*END

*D_NET *539 0.00236105

*CONN
*I *1004:B1 I *C 56.115 23.635 *L 0.00282 *D OAI22X1
*I *1055:Y O *C 57.275 11.165 *L 0 *D AND2X1

*CAP
1 *539:1 0.000994928
2 *539:2 0.000994928
3 *539:3 0.000100922
4 *539:4 0.000100922
5 *539:5 8.46747e-05
6 *539:6 8.46747e-05

*RES
1 *539:6 *1055:Y 1.4
2 *539:5 *539:6 0.497155
3 *539:4 *539:5 1.4
4 *539:3 *539:4 0.497131
5 *539:2 *539:3 1.4
6 *539:1 *539:2 5.84157
7 *1004:B1 *539:1 1.4
*END

*D_NET *540 0.00163737

*CONN
*I *1344:A1N I *C 34.945 21.025 *L 0.00164 *D OAI2BB1X2
*I *1054:Y O *C 37.265 12.615 *L 0 *D NAND2XL

*CAP
1 *540:1 0.000592392
2 *540:2 0.000592392
3 *540:3 0.000205139
4 *540:4 0.000205139
5 *540:5 2.11568e-05
6 *540:6 2.11568e-05

*RES
1 *540:6 *1054:Y 1.4
2 *540:5 *540:6 0.124288
3 *540:4 *540:5 1.4
4 *540:3 *540:4 0.994261
5 *540:2 *540:3 1.4
6 *540:1 *540:2 3.48007
7 *1344:A1N *540:1 1.4
*END

*D_NET *541 0.000764057

*CONN
*I *1014:D I *C 41.905 85.985 *L 0.00166 *D NAND4XL
*I *1053:Y O *C 38.715 85.695 *L 0 *D AOI22X1

*CAP
1 *541:1 6.17031e-05
2 *541:2 6.17031e-05
3 *541:3 0.00027919
4 *541:4 0.00027919
5 *541:5 4.11354e-05
6 *541:6 4.11354e-05

*RES
1 *541:6 *1053:Y 1.4
2 *541:5 *541:6 0.248565
3 *541:4 *541:5 1.4
4 *541:3 *541:4 1.36711
5 *541:2 *541:3 1.4
6 *541:1 *541:2 0.372848
7 *1014:D *541:1 1.4
*END

*D_NET *542 0.00128919

*CONN
*I *984:C I *C 82.795 70.325 *L 0.00164 *D NAND4XL
*I *1052:Y O *C 89.465 68.875 *L 0 *D AOI222XL

*CAP
1 *542:1 0.000116757
2 *542:2 0.000116757
3 *542:3 0.000527836
4 *542:4 0.000527836

*RES
1 *542:5 *1052:Y 1.4
2 *542:4 *542:5 1.4
3 *542:3 *542:4 2.85864
4 *542:2 *542:3 1.4
5 *542:1 *542:2 0.621423
6 *984:C *542:1 1.4
*END

*D_NET *543 0.00060897

*CONN
*I *989:A I *C 65.105 21.315 *L 0.00259 *D NOR3X1
*I *1051:Y O *C 65.685 17.835 *L 0 *D AOI211X1

*CAP
1 *543:2 2.52305e-05
2 *543:3 2.52305e-05
3 *543:4 0.000254024
4 *543:5 0.000254024
5 *543:6 2.52305e-05
6 *543:7 2.52305e-05

*RES
1 *543:8 *1051:Y 1.4
2 *543:7 *543:8 1.4
3 *543:6 *543:7 0.124283
4 *543:5 *543:6 1.4
5 *543:4 *543:5 1.49146
6 *543:3 *543:4 1.4
7 *543:2 *543:3 0.124283
8 *543:1 *543:2 1.4
9 *989:A *543:1 1.4
*END

*D_NET *544 0.000698639

*CONN
*I *1000:A1 I *C 65.975 23.635 *L 0.00277 *D OAI22X1
*I *1050:Y O *C 66.265 26.535 *L 0 *D AOI21X1

*CAP
1 *544:2 5.04611e-05
2 *544:3 5.04611e-05
3 *544:4 0.000215945
4 *544:5 0.000215945
5 *544:6 8.29136e-05
6 *544:7 8.29136e-05

*RES
1 *544:8 *1050:Y 1.4
2 *544:7 *544:8 1.4
3 *544:6 *544:7 0.372865
4 *544:5 *544:6 1.4
5 *544:4 *544:5 1.24288
6 *544:3 *544:4 1.4
7 *544:2 *544:3 0.248565
8 *544:1 *544:2 1.4
9 *1000:A1 *544:1 1.4
*END

*D_NET *545 0.000654692

*CONN
*I *1018:C I *C 23.055 52.635 *L 0.00285 *D NAND3X1
*I *1049:Y O *C 23.635 49.155 *L 0 *D AOI22X1

*CAP
1 *545:2 2.20927e-05
2 *545:3 2.20927e-05
3 *545:4 0.000281554
4 *545:5 0.000281554
5 *545:6 2.36992e-05
6 *545:7 2.36992e-05

*RES
1 *545:8 *1049:Y 1.4
2 *545:7 *545:8 1.4
3 *545:6 *545:7 0.124289
4 *545:5 *545:6 1.4
5 *545:4 *545:5 1.49139
6 *545:3 *545:4 1.4
7 *545:2 *545:3 0.124289
8 *545:1 *545:2 1.4
9 *1018:C *545:1 1.4
*END

*D_NET *546 0.00150861

*CONN
*I *985:AN I *C 72.645 47.415 *L 0.0018 *D NOR3BX1
*I *1048:Y O *C 77.285 43.645 *L 0 *D AOI222XL

*CAP
1 *546:1 0.000288089
2 *546:2 0.000288089
3 *546:3 0.000442206
4 *546:4 0.000442206
5 *546:5 2.40074e-05
6 *546:6 2.40074e-05

*RES
1 *546:6 *1048:Y 1.4
2 *546:5 *546:6 0.124283
3 *546:4 *546:5 1.4
4 *546:3 *546:4 1.98861
5 *546:2 *546:3 1.4
6 *546:1 *546:2 1.49139
7 *985:AN *546:1 1.4
*END

*D_NET *547 0.000742211

*CONN
*I *983:B I *C 22.765 80.475 *L 0.00158 *D NAND4XL
*I *1047:Y O *C 27.405 80.185 *L 0 *D AOI222XL

*CAP
1 *547:1 1.97144e-05
2 *547:2 1.97144e-05
3 *547:3 0.000351391
4 *547:4 0.000351391

*RES
1 *547:5 *1047:Y 1.4
2 *547:4 *547:5 1.4
3 *547:3 *547:4 1.98853
4 *547:2 *547:3 1.4
5 *547:1 *547:2 0.124288
6 *983:B *547:1 1.4
*END

*D_NET *548 0.000861851

*CONN
*I *1005:C0 I *C 54.085 60.175 *L 0.00277 *D AOI221X1
*I *1046:Y O *C 50.605 59.595 *L 0 *D OAI21X1

*CAP
1 *548:1 7.21692e-05
2 *548:2 7.21692e-05
3 *548:3 0.000333569
4 *548:4 0.000333569
5 *548:5 2.51873e-05
6 *548:6 2.51873e-05

*RES
1 *548:6 *1046:Y 1.4
2 *548:5 *548:6 0.124289
3 *548:4 *548:5 1.4
4 *548:3 *548:4 1.49143
5 *548:2 *548:3 1.4
6 *548:1 *548:2 0.372866
7 *1005:C0 *548:1 1.4
*END

*D_NET *549 0.00247953

*CONN
*I *993:C I *C 79.025 91.205 *L 0.00168 *D AND4X1
*I *1045:Y O *C 90.045 85.405 *L 0 *D AOI222XL

*CAP
1 *549:1 1.96862e-05
2 *549:2 1.96862e-05
3 *549:3 0.000764215
4 *549:4 0.000764215
5 *549:5 0.00041341
6 *549:6 0.00041341
7 *549:7 4.24564e-05
8 *549:8 4.24564e-05

*RES
1 *549:9 *1045:Y 1.4
2 *549:8 *549:9 1.4
3 *549:7 *549:8 0.248578
4 *549:6 *549:7 1.4
5 *549:5 *549:6 2.60994
6 *549:4 *549:5 1.4
7 *549:3 *549:4 4.4744
8 *549:2 *549:3 1.4
9 *549:1 *549:2 0.124283
10 *993:C *549:1 1.4
*END

*D_NET *550 0.00175124

*CONN
*I *1010:A I *C 16.095 88.885 *L 0.00157 *D NAND2XL
*I *1044:Y O *C 14.065 78.735 *L 0 *D AOI21X1

*CAP
1 *550:2 2.06241e-05
2 *550:3 2.06241e-05
3 *550:4 0.00067029
4 *550:5 0.00067029
5 *550:6 0.000164993
6 *550:7 0.000164993
7 *550:8 1.97144e-05
8 *550:9 1.97144e-05

*RES
1 *550:9 *1044:Y 1.4
2 *550:8 *550:9 0.124288
3 *550:7 *550:8 1.4
4 *550:6 *550:7 0.994265
5 *550:5 *550:6 1.4
6 *550:4 *550:5 4.22578
7 *550:3 *550:4 1.4
8 *550:2 *550:3 0.124283
9 *550:1 *550:2 1.4
10 *1010:A *550:1 1.4
*END

*D_NET *551 0.00469951

*CONN
*I *1008:A I *C 80.765 57.565 *L 0.00157 *D NAND2XL
*I *1043:Y O *C 57.855 59.595 *L 0 *D AOI22X1

*CAP
1 *551:2 0.00215396
2 *551:3 0.00215396
3 *551:4 0.000168395
4 *551:5 0.000168395
5 *551:6 2.73971e-05
6 *551:7 2.73971e-05

*RES
1 *551:8 *1043:Y 1.4
2 *551:7 *551:8 1.4
3 *551:6 *551:7 0.124289
4 *551:5 *551:6 1.4
5 *551:4 *551:5 0.870021
6 *551:3 *551:4 1.4
7 *551:2 *551:3 9.9431
8 *551:1 *551:2 1.4
9 *1008:A *551:1 1.4
*END

*D_NET *552 0.00207689

*CONN
*I *987:A I *C 53.215 73.515 *L 0.00264 *D NAND3X1
*I *1042:Y O *C 47.995 68.875 *L 0 *D AOI222XL

*CAP
1 *552:1 0.000457071
2 *552:2 0.000457071
3 *552:3 0.000505812
4 *552:4 0.000505812
5 *552:5 7.5562e-05
6 *552:6 7.5562e-05

*RES
1 *552:6 *1042:Y 1.4
2 *552:5 *552:6 0.372866
3 *552:4 *552:5 1.4
4 *552:3 *552:4 2.23711
5 *552:2 *552:3 1.4
6 *552:1 *552:2 2.36149
7 *987:A *552:1 1.4
*END

*D_NET *553 0.00148213

*CONN
*I *988:C I *C 74.385 63.075 *L 0.00164 *D NAND4XL
*I *1041:Y O *C 77.575 58.435 *L 0 *D AOI222XL

*CAP
1 *553:2 2.73971e-05
2 *553:3 2.73971e-05
3 *553:4 0.000360846
4 *553:5 0.000360846
5 *553:6 0.000328765
6 *553:7 0.000328765
7 *553:8 2.40564e-05
8 *553:9 2.40564e-05

*RES
1 *553:9 *1041:Y 1.4
2 *553:8 *553:9 0.124289
3 *553:7 *553:8 1.4
4 *553:6 *553:7 1.49146
5 *553:5 *553:6 1.4
6 *553:4 *553:5 1.86433
7 *553:3 *553:4 1.4
8 *553:2 *553:3 0.124289
9 *553:1 *553:2 1.4
10 *988:C *553:1 1.4
*END

*D_NET *554 0.000336487

*CONN
*I *1003:A I *C 21.315 70.615 *L 0.00157 *D NAND2XL
*I *1040:Y O *C 21.425 68.66 *L 0 *D AOI21XL

*CAP
1 *554:1 0.000159281
2 *554:2 0.000168243
3 *554:3 8.96212e-06

*RES
1 *554:3 *1040:Y 1.4
2 *554:2 *554:3 0.0471417
3 *554:1 *554:2 0.837837
4 *1003:A *554:1 1.4
*END

*D_NET *555 0.000822961

*CONN
*I *991:A I *C 18.705 58.145 *L 0.00152 *D NAND4XL
*I *1039:Y O *C 16.095 58.435 *L 0 *D AOI22XL

*CAP
1 *555:1 9.45097e-05
2 *555:2 9.45097e-05
3 *555:3 0.000198834
4 *555:4 0.000198834
5 *555:5 0.000118137
6 *555:6 0.000118137

*RES
1 *555:6 *1039:Y 1.4
2 *555:5 *555:6 0.621413
3 *555:4 *555:5 1.4
4 *555:3 *555:4 1.1186
5 *555:2 *555:3 1.4
6 *555:1 *555:2 0.497131
7 *991:A *555:1 1.4
*END

*D_NET *556 0.000496487

*CONN
*I *989:B I *C 64.815 21.315 *L 0.00272 *D NOR3X1
*I *1038:Y O *C 67.425 21.605 *L 0 *D AOI211X1

*CAP
1 *556:1 2.11687e-05
2 *556:2 2.11687e-05
3 *556:3 0.000227075
4 *556:4 0.000227075

*RES
1 *556:5 *1038:Y 1.4
2 *556:4 *556:5 1.4
3 *556:3 *556:4 1.11854
4 *556:2 *556:3 1.4
5 *556:1 *556:2 0.124289
6 *989:B *556:1 1.4
*END

*D_NET *557 0.000589889

*CONN
*I *1019:B I *C 51.765 86.275 *L 0.00171 *D NOR2XL
*I *1037:Y O *C 48.865 85.695 *L 0 *D NAND2XL

*CAP
1 *557:2 0.000253809
2 *557:3 0.000253809
3 *557:4 4.11354e-05
4 *557:5 4.11354e-05

*RES
1 *557:5 *1037:Y 1.4
2 *557:4 *557:5 0.248565
3 *557:3 *557:4 1.4
4 *557:2 *557:3 1.24283
5 *557:1 *557:2 1.4
6 *1019:B *557:1 1.4
*END

*D_NET *558 0.00089166

*CONN
*I *1019:A I *C 52.055 85.985 *L 0.00162 *D NOR2XL
*I *1036:Y O *C 53.215 90.915 *L 0 *D NAND2XL

*CAP
1 *558:2 4.91801e-05
2 *558:3 4.91801e-05
3 *558:4 0.000347997
4 *558:5 0.000347997
5 *558:6 4.86529e-05
6 *558:7 4.86529e-05

*RES
1 *558:8 *1036:Y 1.4
2 *558:7 *558:8 1.4
3 *558:6 *558:7 0.248578
4 *558:5 *558:6 1.4
5 *558:4 *558:5 2.11289
6 *558:3 *558:4 1.4
7 *558:2 *558:3 0.248575
8 *558:1 *558:2 1.4
9 *1019:A *558:1 1.4
*END

*D_NET *559 0.00275947

*CONN
*I *983:C I *C 23.055 80.765 *L 0.00164 *D NAND4XL
*I *1035:Y O *C 31.175 90.915 *L 0 *D AOI221X1

*CAP
1 *559:1 1.97144e-05
2 *559:2 1.97144e-05
3 *559:3 0.000660719
4 *559:4 0.000660719
5 *559:5 0.000699302
6 *559:6 0.000699302

*RES
1 *559:6 *1035:Y 1.4
2 *559:5 *559:6 4.22561
3 *559:4 *559:5 1.4
4 *559:3 *559:4 3.47992
5 *559:2 *559:3 1.4
6 *559:1 *559:2 0.124288
7 *983:C *559:1 1.4
*END

*D_NET *560 0.000471105

*CONN
*I *1006:C0 I *C 74.095 91.495 *L 0.00277 *D AOI221X1
*I *1034:Y O *C 71.775 90.915 *L 0 *D NAND2XL

*CAP
1 *560:2 0.000194611
2 *560:3 0.000194611
3 *560:4 4.09408e-05
4 *560:5 4.09408e-05

*RES
1 *560:5 *1034:Y 1.4
2 *560:4 *560:5 0.248576
3 *560:3 *560:4 1.4
4 *560:2 *560:3 0.99431
5 *560:1 *560:2 1.4
6 *1006:C0 *560:1 1.4
*END

*D_NET *561 0.0014696

*CONN
*I *1016:B I *C 50.315 49.735 *L 0.00171 *D NOR2XL
*I *1033:Y O *C 45.675 47.705 *L 0 *D NAND2XL

*CAP
1 *561:1 0.000226687
2 *561:2 0.000226687
3 *561:3 0.000457736
4 *561:4 0.000457736
5 *561:5 5.03749e-05
6 *561:6 5.03749e-05

*RES
1 *561:6 *1033:Y 1.4
2 *561:5 *561:6 0.248575
3 *561:4 *561:5 1.4
4 *561:3 *561:4 1.98862
5 *561:2 *561:3 1.4
6 *561:1 *561:2 1.11859
7 *1016:B *561:1 1.4
*END

*D_NET *562 0.00136099

*CONN
*I *1016:A I *C 50.605 49.445 *L 0.00162 *D NOR2XL
*I *1032:Y O *C 56.405 49.155 *L 0 *D NAND2XL

*CAP
1 *562:1 5.03749e-05
2 *562:2 5.03749e-05
3 *562:3 0.000558096
4 *562:4 0.000558096
5 *562:5 7.20223e-05
6 *562:6 7.20223e-05

*RES
1 *562:6 *1032:Y 1.4
2 *562:5 *562:6 0.372848
3 *562:4 *562:5 1.4
4 *562:3 *562:4 2.48577
5 *562:2 *562:3 1.4
6 *562:1 *562:2 0.248575
7 *1016:A *562:1 1.4
*END

*D_NET *563 0.00056802

*CONN
*I *996:A I *C 43.935 21.025 *L 0.00564 *D NOR2X2
*I *1031:Y O *C 44.515 17.835 *L 0 *D NOR3X1

*CAP
1 *563:2 2.56424e-05
2 *563:3 2.56424e-05
3 *563:4 0.000232725
4 *563:5 0.000232725
5 *563:6 2.56424e-05
6 *563:7 2.56424e-05

*RES
1 *563:8 *1031:Y 1.4
2 *563:7 *563:8 1.4
3 *563:6 *563:7 0.124283
4 *563:5 *563:6 1.4
5 *563:4 *563:5 1.36717
6 *563:3 *563:4 1.4
7 *563:2 *563:3 0.124283
8 *563:1 *563:2 1.4
9 *996:A *563:1 1.4
*END

*D_NET *564 0.000368799

*CONN
*I *992:B I *C 83.665 65.395 *L 0.00171 *D NOR2XL
*I *1030:Y O *C 85.405 64.815 *L 0 *D NAND2XL

*CAP
1 *564:2 0.000137696
2 *564:3 0.000137696
3 *564:4 4.67028e-05
4 *564:5 4.67028e-05

*RES
1 *564:5 *1030:Y 1.4
2 *564:4 *564:5 0.248569
3 *564:3 *564:4 1.4
4 *564:2 *564:3 0.745732
5 *564:1 *564:2 1.4
6 *992:B *564:1 1.4
*END

*D_NET *565 0.00189141

*CONN
*I *1003:B I *C 20.735 70.615 *L 0.00167 *D NAND2XL
*I *1029:Y O *C 16.385 78.155 *L 0 *D NOR2XL

*CAP
1 *565:1 2.36274e-05
2 *565:2 2.36274e-05
3 *565:3 0.000287204
4 *565:4 0.000287204
5 *565:5 0.000590685
6 *565:6 0.000590685
7 *565:7 4.41853e-05
8 *565:8 4.41853e-05

*RES
1 *565:9 *1029:Y 1.4
2 *565:8 *565:9 1.4
3 *565:7 *565:8 0.248577
4 *565:6 *565:7 1.4
5 *565:5 *565:6 3.10707
6 *565:4 *565:5 1.4
7 *565:3 *565:4 1.61575
8 *565:2 *565:3 1.4
9 *565:1 *565:2 0.124283
10 *1003:B *565:1 1.4
*END

*D_NET *566 0.000400737

*CONN
*I *982:B I *C 23.055 70.325 *L 0.00272 *D NOR3X1
*I *1028:Y O *C 25.375 70.035 *L 0 *D NAND2XL

*CAP
1 *566:1 2.36274e-05
2 *566:2 2.36274e-05
3 *566:3 0.000176741
4 *566:4 0.000176741

*RES
1 *566:5 *1028:Y 1.4
2 *566:4 *566:5 1.4
3 *566:3 *566:4 0.99431
4 *566:2 *566:3 1.4
5 *566:1 *566:2 0.124283
6 *982:B *566:1 1.4
*END

*D_NET *567 0.000925397

*CONN
*I *1012:B I *C 50.315 28.855 *L 0.00171 *D NOR2XL
*I *1027:Y O *C 51.765 25.955 *L 0 *D NOR2XL

*CAP
1 *567:1 0.000292173
2 *567:2 0.000292173
3 *567:3 0.000128212
4 *567:4 0.000128212
5 *567:5 4.23137e-05
6 *567:6 4.23137e-05

*RES
1 *567:6 *1027:Y 1.4
2 *567:5 *567:6 0.248576
3 *567:4 *567:5 1.4
4 *567:3 *567:4 0.621413
5 *567:2 *567:3 1.4
6 *567:1 *567:2 1.49145
7 *1012:B *567:1 1.4
*END

*D_NET *568 0.00158792

*CONN
*I *1012:A I *C 50.025 28.565 *L 0.00162 *D NOR2XL
*I *1026:Y O *C 47.415 21.315 *L 0 *D AOI21X1

*CAP
1 *568:1 0.000520867
2 *568:2 0.000520867
3 *568:3 0.000230781
4 *568:4 0.000230781
5 *568:5 4.23137e-05
6 *568:6 4.23137e-05

*RES
1 *568:6 *1026:Y 1.4
2 *568:5 *568:6 0.248576
3 *568:4 *568:5 1.4
4 *568:3 *568:4 1.11854
5 *568:2 *568:3 1.4
6 *568:1 *568:2 2.85862
7 *1012:A *568:1 1.4
*END

*D_NET *569 0.00115798

*CONN
*I *1009:B0 I *C 53.215 41.905 *L 0.00277 *D AOI21X1
*I *1025:Y O *C 56.695 39.585 *L 0 *D NOR2XL

*CAP
1 *569:2 0.000359292
2 *569:3 0.000359292
3 *569:4 0.00019206
4 *569:5 0.00019206
5 *569:6 2.76379e-05
6 *569:7 2.76379e-05

*RES
1 *569:8 *1025:Y 1.4
2 *569:7 *569:8 1.4
3 *569:6 *569:7 0.124288
4 *569:5 *569:6 1.4
5 *569:4 *569:5 0.994261
6 *569:3 *569:4 1.4
7 *569:2 *569:3 1.61575
8 *569:1 *569:2 1.4
9 *1009:B0 *569:1 1.4
*END

*D_NET *570 0.0017997

*CONN
*I *999:A I *C 83.375 57.855 *L 0.00162 *D NOR2XL
*I *1024:Y O *C 91.205 54.375 *L 0 *D NAND2XL

*CAP
1 *570:1 0.000280217
2 *570:2 0.000280217
3 *570:3 0.000619634
4 *570:4 0.000619634

*RES
1 *570:5 *1024:Y 1.4
2 *570:4 *570:5 1.4
3 *570:3 *570:4 3.3558
4 *570:2 *570:3 1.4
5 *570:1 *570:2 1.49141
6 *999:A *570:1 1.4
*END

*D_NET *571 0.000970791

*CONN
*I *1001:A I *C 20.445 28.855 *L 0.00157 *D NAND2XL
*I *1023:Y O *C 19.865 23.055 *L 0 *D AOI22X1

*CAP
1 *571:2 4.73985e-05
2 *571:3 4.73985e-05
3 *571:4 0.000437997
4 *571:5 0.000437997

*RES
1 *571:5 *1023:Y 1.4
2 *571:4 *571:5 2.48566
3 *571:3 *571:4 1.4
4 *571:2 *571:3 0.248577
5 *571:1 *571:2 1.4
6 *1001:A *571:1 1.4
*END

*D_NET *572 0.000610334

*CONN
*I *996:B I *C 43.645 20.735 *L 0.00542 *D NOR2X2
*I *1022:Y O *C 43.065 24.215 *L 0 *D OAI22X1

*CAP
1 *572:1 4.23137e-05
2 *572:2 4.23137e-05
3 *572:3 5.12847e-05
4 *572:4 5.12847e-05
5 *572:5 0.000211568
6 *572:6 0.000211568

*RES
1 *572:6 *1022:Y 1.4
2 *572:5 *572:6 1.24288
3 *572:4 *572:5 1.4
4 *572:3 *572:4 0.248565
5 *572:2 *572:3 1.4
6 *572:1 *572:2 0.248576
7 *996:B *572:1 1.4
*END

*D_NET *573 0.000517745

*CONN
*I *1001:B I *C 21.025 28.855 *L 0.00167 *D NAND2XL
*I *1021:Y O *C 22.185 26.825 *L 0 *D AOI22X1

*CAP
1 *573:2 4.73985e-05
2 *573:3 4.73985e-05
3 *573:4 0.000164075
4 *573:5 0.000164075
5 *573:6 4.73985e-05
6 *573:7 4.73985e-05

*RES
1 *573:8 *1021:Y 1.4
2 *573:7 *573:8 1.4
3 *573:6 *573:7 0.248577
4 *573:5 *573:6 1.4
5 *573:4 *573:5 0.869979
6 *573:3 *573:4 1.4
7 *573:2 *573:3 0.248577
8 *573:1 *573:2 1.4
9 *1001:B *573:1 1.4
*END

*D_NET *574 0.000693613

*CONN
*I *994:B I *C 62.205 81.055 *L 0.00171 *D NOR2XL
*I *1020:Y O *C 60.755 84.245 *L 0 *D NAND4XL

*CAP
1 *574:1 2.04704e-05
2 *574:2 2.04704e-05
3 *574:3 0.000121632
4 *574:4 0.000121632
5 *574:5 0.000204704
6 *574:6 0.000204704

*RES
1 *574:6 *1020:Y 1.4
2 *574:5 *574:6 1.24288
3 *574:4 *574:5 1.4
4 *574:3 *574:4 0.621444
5 *574:2 *574:3 1.4
6 *574:1 *574:2 0.124288
7 *994:B *574:1 1.4
*END

*D_NET *575 0.00235517

*CONN
*I *987:C I *C 53.795 73.515 *L 0.00285 *D NAND3X1
*I *1019:Y O *C 51.475 86.565 *L 0 *D NOR2XL

*CAP
1 *575:1 0.000980337
2 *575:2 0.000980337
3 *575:3 0.000197248
4 *575:4 0.000197248

*RES
1 *575:5 *1019:Y 1.4
2 *575:4 *575:5 1.4
3 *575:3 *575:4 0.994295
4 *575:2 *575:3 1.4
5 *575:1 *575:2 5.59297
6 *987:C *575:1 1.4
*END

*D_NET *576 0.000472504

*CONN
*I *990:A I *C 23.635 54.665 *L 0.00162 *D NOR2XL
*I *1018:Y O *C 23.345 52.055 *L 0 *D NAND3X1

*CAP
1 *576:1 0.000212553
2 *576:2 0.000212553
3 *576:3 2.36992e-05
4 *576:4 2.36992e-05

*RES
1 *576:5 *1018:Y 1.4
2 *576:4 *576:5 1.4
3 *576:3 *576:4 0.124289
4 *576:2 *576:3 1.4
5 *576:1 *576:2 1.11854
6 *990:A *576:1 1.4
*END

*D_NET *577 0.000944937

*CONN
*I *995:A I *C 83.375 78.735 *L 0.00162 *D NOR2XL
*I *1017:Y O *C 83.375 85.695 *L 0 *D NAND4XL

*CAP
1 *577:1 0.000472469
2 *577:2 0.000472469

*RES
1 *577:2 *1017:Y 1.4
2 *577:1 *577:2 2.98278
3 *995:A *577:1 1.4
*END

*D_NET *578 0.00045954

*CONN
*I *977:B I *C 50.315 52.345 *L 0.00167 *D NAND2XL
*I *1016:Y O *C 50.025 50.025 *L 0 *D NOR2XL

*CAP
1 *578:2 2.82705e-05
2 *578:3 2.82705e-05
3 *578:4 0.000201499
4 *578:5 0.000201499

*RES
1 *578:5 *1016:Y 1.4
2 *578:4 *578:5 0.994302
3 *578:3 *578:4 1.4
4 *578:2 *578:3 0.124283
5 *578:1 *578:2 1.4
6 *977:B *578:1 1.4
*END

*D_NET *579 0.00404446

*CONN
*I *985:C I *C 71.485 47.415 *L 0.00291 *D NOR3BX1
*I *1015:Y O *C 90.045 42.485 *L 0 *D NAND4XL

*CAP
1 *579:1 0.000408127
2 *579:2 0.000408127
3 *579:3 0.00161411
4 *579:4 0.00161411

*RES
1 *579:5 *1015:Y 1.4
2 *579:4 *579:5 1.4
3 *579:3 *579:4 7.95422
4 *579:2 *579:3 1.4
5 *579:1 *579:2 2.11281
6 *985:C *579:1 1.4
*END

*D_NET *580 0.00415922

*CONN
*I *994:A I *C 61.915 80.765 *L 0.00162 *D NOR2XL
*I *1014:Y O *C 42.195 85.695 *L 0 *D NAND4XL

*CAP
1 *580:1 0.000368467
2 *580:2 0.000368467
3 *580:3 0.00169058
4 *580:4 0.00169058
5 *580:5 2.05677e-05
6 *580:6 2.05677e-05

*RES
1 *580:6 *1014:Y 1.4
2 *580:5 *580:6 0.124283
3 *580:4 *580:5 1.4
4 *580:3 *580:4 8.45143
5 *580:2 *580:3 1.4
6 *580:1 *580:2 2.23718
7 *994:A *580:1 1.4
*END

*D_NET *581 0.000532011

*CONN
*I *995:B I *C 83.665 78.445 *L 0.00171 *D NOR2XL
*I *1013:Y O *C 85.985 79.025 *L 0 *D NAND4XL

*CAP
1 *581:1 2.15188e-05
2 *581:2 2.15188e-05
3 *581:3 0.000183595
4 *581:4 0.000183595
5 *581:5 6.08912e-05
6 *581:6 6.08912e-05

*RES
1 *581:6 *1013:Y 1.4
2 *581:5 *581:6 0.372849
3 *581:4 *581:5 1.4
4 *581:3 *581:4 0.99431
5 *581:2 *581:3 1.4
6 *581:1 *581:2 0.124284
7 *995:B *581:1 1.4
*END

*D_NET *582 0.00131787

*CONN
*I *998:B I *C 56.695 28.855 *L 0.00167 *D NAND2XL
*I *1012:Y O *C 50.605 29.145 *L 0 *D NOR2XL

*CAP
1 *582:1 4.80149e-05
2 *582:2 4.80149e-05
3 *582:3 0.000585734
4 *582:4 0.000585734
5 *582:5 2.51874e-05
6 *582:6 2.51874e-05

*RES
1 *582:6 *1012:Y 1.4
2 *582:5 *582:6 0.124288
3 *582:4 *582:5 1.4
4 *582:3 *582:4 2.61006
5 *582:2 *582:3 1.4
6 *582:1 *582:2 0.248565
7 *998:B *582:1 1.4
*END

*D_NET *583 0.000704063

*CONN
*I *985:B I *C 72.065 47.125 *L 0.00272 *D NOR3BX1
*I *1011:Y O *C 68.875 46.545 *L 0 *D OAI211X1

*CAP
1 *583:1 4.80149e-05
2 *583:2 4.80149e-05
3 *583:3 0.000304017
4 *583:4 0.000304017

*RES
1 *583:5 *1011:Y 1.4
2 *583:4 *583:5 1.4
3 *583:3 *583:4 1.36717
4 *583:2 *583:3 1.4
5 *583:1 *583:2 0.248565
6 *985:B *583:1 1.4
*END

*D_NET *584 0.000326347

*CONN
*I *1345:C0 I *C 14.935 88.885 *L 0.00277 *D AOI221X1
*I *1010:Y O *C 16.675 89.465 *L 0 *D NAND2XL

*CAP
1 *584:2 0.000123745
2 *584:3 0.000123745
3 *584:4 3.94288e-05
4 *584:5 3.94288e-05

*RES
1 *584:5 *1010:Y 1.4
2 *584:4 *584:5 0.248576
3 *584:3 *584:4 1.4
4 *584:2 *584:3 0.745699
5 *584:1 *584:2 1.4
6 *1345:C0 *584:1 1.4
*END

*D_NET *585 0.000553214

*CONN
*I *997:A I *C 50.315 42.195 *L 0.00267 *D NAND2X1
*I *1009:Y O *C 52.635 42.195 *L 0 *D AOI21X1

*CAP
1 *585:1 2.51874e-05
2 *585:2 2.51874e-05
3 *585:3 0.000227412
4 *585:4 0.000227412
5 *585:5 2.40074e-05
6 *585:6 2.40074e-05

*RES
1 *585:6 *1009:Y 1.4
2 *585:5 *585:6 0.124283
3 *585:4 *585:5 1.4
4 *585:3 *585:4 0.994309
5 *585:2 *585:3 1.4
6 *585:1 *585:2 0.124288
7 *997:A *585:1 1.4
*END

*D_NET *586 0.00144216

*CONN
*I *992:A I *C 83.375 65.105 *L 0.00162 *D NOR2XL
*I *1008:Y O *C 81.345 58.145 *L 0 *D NAND2XL

*CAP
1 *586:1 2.33514e-05
2 *586:2 2.33514e-05
3 *586:3 0.000160646
4 *586:4 0.000160646
5 *586:5 0.000537082
6 *586:6 0.000537082

*RES
1 *586:6 *1008:Y 1.4
2 *586:5 *586:6 2.85855
3 *586:4 *586:5 1.4
4 *586:3 *586:4 0.870021
5 *586:2 *586:3 1.4
6 *586:1 *586:2 0.124285
7 *992:A *586:1 1.4
*END

*D_NET *587 0.000880922

*CONN
*I *999:B I *C 83.085 57.565 *L 0.00171 *D NOR2XL
*I *1007:Y O *C 85.405 54.375 *L 0 *D NAND2XL

*CAP
1 *587:1 4.67028e-05
2 *587:2 4.67028e-05
3 *587:3 0.000160646
4 *587:4 0.000160646
5 *587:5 0.000210163
6 *587:6 0.000210163
7 *587:7 2.29494e-05
8 *587:8 2.29494e-05

*RES
1 *587:9 *1007:Y 1.4
2 *587:8 *587:9 1.4
3 *587:7 *587:8 0.124289
4 *587:6 *587:7 1.4
5 *587:5 *587:6 1.11856
6 *587:4 *587:5 1.4
7 *587:3 *587:4 0.870021
8 *587:2 *587:3 1.4
9 *587:1 *587:2 0.248569
10 *999:B *587:1 1.4
*END

*D_NET *588 0.000835503

*CONN
*I *993:D I *C 79.315 91.495 *L 0.0016 *D AND4X1
*I *1006:Y O *C 74.675 90.915 *L 0 *D AOI221X1

*CAP
1 *588:1 3.93724e-05
2 *588:2 3.93724e-05
3 *588:3 0.000378379
4 *588:4 0.000378379

*RES
1 *588:5 *1006:Y 1.4
2 *588:4 *588:5 1.4
3 *588:3 *588:4 1.98862
4 *588:2 *588:3 1.4
5 *588:1 *588:2 0.248565
6 *993:D *588:1 1.4
*END

*D_NET *589 0.00267293

*CONN
*I *987:B I *C 53.505 73.805 *L 0.00285 *D NAND3X1
*I *1005:Y O *C 54.665 59.595 *L 0 *D AOI221X1

*CAP
1 *589:1 2.40564e-05
2 *589:2 2.40564e-05
3 *589:3 0.000109588
4 *589:4 0.000109588
5 *589:5 0.00120282
6 *589:6 0.00120282

*RES
1 *589:6 *1005:Y 1.4
2 *589:5 *589:6 6.21444
3 *589:4 *589:5 1.4
4 *589:3 *589:4 0.497155
5 *589:2 *589:3 1.4
6 *589:1 *589:2 0.124289
7 *987:B *589:1 1.4
*END

*D_NET *590 0.000700443

*CONN
*I *986:A I *C 57.855 26.535 *L 0.00263 *D NOR2X1
*I *1004:Y O *C 55.825 24.215 *L 0 *D OAI22X1

*CAP
1 *590:1 4.65955e-05
2 *590:2 4.65955e-05
3 *590:3 0.000176614
4 *590:4 0.000176614
5 *590:5 0.000127012
6 *590:6 0.000127012

*RES
1 *590:6 *1004:Y 1.4
2 *590:5 *590:6 0.745732
3 *590:4 *590:5 1.4
4 *590:3 *590:4 0.869979
5 *590:2 *590:3 1.4
6 *590:1 *590:2 0.248568
7 *986:A *590:1 1.4
*END

*D_NET *591 0.000492177

*CONN
*I *982:C I *C 23.345 70.615 *L 0.00278 *D NOR3X1
*I *1003:Y O *C 20.735 70.035 *L 0 *D NAND2XL

*CAP
1 *591:1 2.36274e-05
2 *591:2 2.36274e-05
3 *591:3 0.000198834
4 *591:4 0.000198834
5 *591:5 2.36274e-05
6 *591:6 2.36274e-05

*RES
1 *591:6 *1003:Y 1.4
2 *591:5 *591:6 0.124283
3 *591:4 *591:5 1.4
4 *591:3 *591:4 1.1186
5 *591:2 *591:3 1.4
6 *591:1 *591:2 0.124283
7 *982:C *591:1 1.4
*END

*D_NET *592 0.00104696

*CONN
*I *982:A I *C 22.765 70.325 *L 0.00259 *D NOR3X1
*I *1002:Y O *C 18.995 67.425 *L 0 *D OAI211X1

*CAP
1 *592:2 2.20927e-05
2 *592:3 2.20927e-05
3 *592:4 0.000236274
4 *592:5 0.000236274
5 *592:6 0.000265112
6 *592:7 0.000265112

*RES
1 *592:8 *1002:Y 1.4
2 *592:7 *592:8 1.4
3 *592:6 *592:7 1.49146
4 *592:5 *592:6 1.4
5 *592:4 *592:5 1.24283
6 *592:3 *592:4 1.4
7 *592:2 *592:3 0.124289
8 *592:1 *592:2 1.4
9 *982:A *592:1 1.4
*END

*D_NET *593 0.000768477

*CONN
*I *989:C I *C 64.525 21.025 *L 0.00278 *D NOR3X1
*I *1000:Y O *C 66.265 24.215 *L 0 *D OAI22X1

*CAP
1 *593:2 5.04611e-05
2 *593:3 5.04611e-05
3 *593:4 0.000232855
4 *593:5 0.000232855
5 *593:6 0.000100922
6 *593:7 0.000100922

*RES
1 *593:8 *1000:Y 1.4
2 *593:7 *593:8 1.4
3 *593:6 *593:7 0.497131
4 *593:5 *593:6 1.4
5 *593:4 *593:5 1.36718
6 *593:3 *593:4 1.4
7 *593:2 *593:3 0.248565
8 *593:1 *593:2 1.4
9 *989:C *593:1 1.4
*END

*D_NET *594 0.00252005

*CONN
*I *988:D I *C 74.675 63.075 *L 0.00166 *D NAND4XL
*I *999:Y O *C 82.795 57.275 *L 0 *D NOR2XL

*CAP
1 *594:1 4.81128e-05
2 *594:2 4.81128e-05
3 *594:3 0.00069818
4 *594:4 0.00069818
5 *594:5 0.000513731
6 *594:6 0.000513731

*RES
1 *594:6 *999:Y 1.4
2 *594:5 *594:6 2.73426
3 *594:4 *594:5 1.4
4 *594:3 *594:4 3.48008
5 *594:2 *594:3 1.4
6 *594:1 *594:2 0.248578
7 *988:D *594:1 1.4
*END

*D_NET *595 0.000564468

*CONN
*I *986:B I *C 58.145 26.535 *L 0.0028 *D NOR2X1
*I *998:Y O *C 56.695 28.275 *L 0 *D NAND2XL

*CAP
1 *595:2 5.52757e-05
2 *595:3 5.52757e-05
3 *595:4 0.000144045
4 *595:5 0.000144045
5 *595:6 8.29136e-05
6 *595:7 8.29136e-05

*RES
1 *595:8 *998:Y 1.4
2 *595:7 *595:8 1.4
3 *595:6 *595:7 0.372865
4 *595:5 *595:6 1.4
5 *595:4 *595:5 0.745696
6 *595:3 *595:4 1.4
7 *595:2 *595:3 0.248576
8 *595:1 *595:2 1.4
9 *986:B *595:1 1.4
*END

*D_NET *596 0.00123637

*CONN
*I *981:C0 I *C 48.865 47.415 *L 0.00281 *D AOI211X1
*I *997:Y O *C 50.025 41.615 *L 0 *D NAND2X1

*CAP
1 *596:2 8.58254e-05
2 *596:3 8.58254e-05
3 *596:4 0.000503749
4 *596:5 0.000503749
5 *596:6 2.86085e-05
6 *596:7 2.86085e-05

*RES
1 *596:8 *997:Y 1.4
2 *596:7 *596:8 1.4
3 *596:6 *596:7 0.124289
4 *596:5 *596:6 1.4
5 *596:4 *596:5 2.48575
6 *596:3 *596:4 1.4
7 *596:2 *596:3 0.372866
8 *596:1 *596:2 1.4
9 *981:C0 *596:1 1.4
*END

*D_NET *597 0.00193088

*CONN
*I *1344:B0 I *C 32.915 21.025 *L 0.00561 *D OAI2BB1X2
*I *996:Y O *C 43.355 20.445 *L 0 *D NOR2X2

*CAP
1 *597:2 0.000923125
2 *597:3 0.000923125
3 *597:4 4.23137e-05
4 *597:5 4.23137e-05

*RES
1 *597:5 *996:Y 1.4
2 *597:4 *597:5 0.248576
3 *597:3 *597:4 1.4
4 *597:2 *597:3 4.47418
5 *597:1 *597:2 1.4
6 *1344:B0 *597:1 1.4
*END

*D_NET *598 0.00143423

*CONN
*I *979:A I *C 25.085 23.635 *L 0.00564 *D NOR2X2
*I *974:A0 I *C 24.215 26.535 *L 0.00155 *D AO21X1
*I *1001:Y O *C 21.025 28.275 *L 0 *D NAND2XL

*CAP
1 *598:1 2.0507e-05
2 *598:2 2.0507e-05
3 *598:3 6.5306e-05
4 *598:4 6.5306e-05
5 *598:5 0.000229975
6 *598:6 0.000347172
7 *598:7 0.000117197
8 *598:9 0.000260692
9 *598:10 0.000260692
10 *598:11 2.34394e-05
11 *598:12 2.34394e-05

*RES
1 *598:12 *1001:Y 1.4
2 *598:11 *598:12 0.124283
3 *598:10 *598:11 1.4
4 *598:9 *598:10 1.36718
5 *598:7 *598:9 1.4
6 *598:6 *974:A0 1.4
7 *598:6 *598:7 0.621413
8 *598:5 *598:6 1.36712
9 *598:4 *598:5 1.4
10 *598:3 *598:4 0.372866
11 *598:2 *598:3 1.4
12 *598:1 *598:2 0.124283
13 *979:A *598:1 1.4
*END

*D_NET *599 0.000884941

*CONN
*I *984:D I *C 83.085 70.325 *L 0.00166 *D NAND4XL
*I *992:Y O *C 83.955 65.685 *L 0 *D NOR2XL

*CAP
1 *599:2 2.29494e-05
2 *599:3 2.29494e-05
3 *599:4 0.000373622
4 *599:5 0.000373622
5 *599:6 4.58988e-05
6 *599:7 4.58988e-05

*RES
1 *599:8 *992:Y 1.4
2 *599:7 *599:8 1.4
3 *599:6 *599:7 0.248578
4 *599:5 *599:6 1.4
5 *599:4 *599:5 1.98855
6 *599:3 *599:4 1.4
7 *599:2 *599:3 0.124289
8 *599:1 *599:2 1.4
9 *984:D *599:1 1.4
*END

*D_NET *600 0.00132742

*CONN
*I *990:B I *C 23.925 54.955 *L 0.00171 *D NOR2XL
*I *991:Y O *C 19.865 58.145 *L 0 *D NAND4XL

*CAP
1 *600:1 0.000307156
2 *600:2 0.000307156
3 *600:3 0.000309297
4 *600:4 0.000309297
5 *600:5 4.72548e-05
6 *600:6 4.72548e-05

*RES
1 *600:6 *991:Y 1.4
2 *600:5 *600:6 0.248565
3 *600:4 *600:5 1.4
4 *600:3 *600:4 1.74004
5 *600:2 *600:3 1.4
6 *600:1 *600:2 1.61567
7 *990:B *600:1 1.4
*END

*D_NET *601 0.00278368

*CONN
*I *975:C I *C 70.325 75.545 *L 0.00163 *D NAND4BXL
*I *929:A I *C 72.645 75.545 *L 0.00162 *D NOR2XL
*I *932:A I *C 73.515 78.445 *L 0.00157 *D NAND2XL
*I *995:Y O *C 83.955 78.155 *L 0 *D NOR2XL

*CAP
1 *601:1 2.40564e-05
2 *601:2 2.40564e-05
3 *601:3 0.000219177
4 *601:4 0.000219177
5 *601:5 0.000238771
6 *601:6 0.000214714
7 *601:7 2.40564e-05
8 *601:8 7.29793e-05
9 *601:10 0.000888315
10 *601:11 0.000815336
11 *601:13 2.15188e-05
12 *601:15 2.15188e-05

*RES
1 *601:15 *995:Y 1.4
2 *601:13 *601:15 0.124284
3 *601:12 *932:A 1.4
4 *601:11 *601:13 1.4
5 *601:10 *601:12 1.4
6 *601:10 *601:11 4.4744
7 *601:8 *601:10 0.372866
8 *601:7 *929:A 1.4
9 *601:6 *601:8 1.4
10 *601:5 *601:7 0.124289
11 *601:5 *601:6 1.1186
12 *601:4 *601:5 1.4
13 *601:3 *601:4 0.99431
14 *601:2 *601:3 1.4
15 *601:1 *601:2 0.124289
16 *975:C *601:1 1.4
*END

*D_NET *602 0.00312952

*CONN
*I *975:D I *C 70.035 75.545 *L 0.00174 *D NAND4BXL
*I *962:B I *C 66.845 73.515 *L 0.00284 *D NAND2BX1
*I *961:B I *C 65.105 75.545 *L 0.0028 *D NOR2BX1
*I *994:Y O *C 62.495 81.345 *L 0 *D NOR2XL

*CAP
1 *602:1 9.62255e-05
2 *602:2 9.62255e-05
3 *602:3 0.000301368
4 *602:4 0.000301368
5 *602:5 0.000120282
6 *602:6 0.00026462
7 *602:7 0.000164383
8 *602:8 0.000144338
9 *602:9 0.000410956
10 *602:11 2.40564e-05
11 *602:12 0.000246574
12 *602:13 2.40564e-05
13 *602:14 0.000467531
14 *602:16 0.000467531

*RES
1 *602:16 *994:Y 1.4
2 *602:14 *602:16 2.61005
3 *602:13 *961:B 1.4
4 *602:12 *602:14 1.4
5 *602:11 *602:13 0.124289
6 *602:9 *602:12 1.1186
7 *602:9 *602:11 1.4
8 *602:8 *962:B 1.4
9 *602:7 *602:9 0.745732
10 *602:6 *602:8 0.745732
11 *602:6 *602:7 1.4
12 *602:5 *602:6 0.621444
13 *602:4 *602:5 1.4
14 *602:3 *602:4 1.36718
15 *602:2 *602:3 1.4
16 *602:1 *602:2 0.497155
17 *975:D *602:1 1.4
*END

*D_NET *603 0.00357714

*CONN
*I *926:A0 I *C 70.325 80.765 *L 0.00271 *D OAI21X1
*I *975:B I *C 70.905 75.545 *L 0.00163 *D NAND4BXL
*I *993:Y O *C 77.575 91.495 *L 0 *D AND4X1

*CAP
1 *603:2 4.86529e-05
2 *603:3 4.86529e-05
3 *603:4 2.04704e-05
4 *603:5 0.000402534
5 *603:6 0.000559508
6 *603:7 0.000382064
7 *603:8 0.000559508
8 *603:10 0.000777876
9 *603:11 0.000777876

*RES
1 *603:11 *993:Y 1.4
2 *603:10 *603:11 4.72294
3 *603:8 *603:10 1.4
4 *603:7 *975:B 1.4
5 *603:6 *603:8 2.85864
6 *603:5 *603:7 2.1129
7 *603:5 *603:6 1.4
8 *603:4 *603:5 0.124288
9 *603:3 *603:4 1.4
10 *603:2 *603:3 0.248578
11 *603:1 *603:2 1.4
12 *926:A0 *603:1 1.4
*END

*D_NET *604 0.00173004

*CONN
*I *960:A I *C 31.175 54.665 *L 0.00377 *D ADDHX1
*I *976:A I *C 30.305 57.275 *L 0.00181 *D AND2XL
*I *990:Y O *C 24.215 55.245 *L 0 *D NOR2XL

*CAP
1 *604:1 5.03747e-05
2 *604:2 5.03747e-05
3 *604:3 8.48115e-05
4 *604:4 0.000638336
5 *604:5 0.000176311
6 *604:6 0.000553524
7 *604:7 0.000176311

*RES
1 *604:8 *990:Y 1.4
2 *604:7 *976:A 1.4
3 *604:6 *604:8 1.4
4 *604:5 *604:7 0.870021
5 *604:4 *604:6 2.60998
6 *604:4 *604:5 1.4
7 *604:3 *604:4 0.372849
8 *604:2 *604:3 1.4
9 *604:1 *604:2 0.248578
10 *960:A *604:1 1.4
*END

*D_NET *605 0.00151938

*CONN
*I *973:A I *C 61.045 23.925 *L 0.00175 *D OR2XL
*I *972:A I *C 62.495 23.925 *L 0.00183 *D CLKXOR2X1
*I *971:A0 I *C 64.525 26.535 *L 0.00271 *D OAI21X1
*I *989:Y O *C 64.815 21.605 *L 0 *D NOR3X1

*CAP
1 *605:1 2.11687e-05
2 *605:2 2.11687e-05
3 *605:3 0.000126153
4 *605:4 0.000277536
5 *605:5 0.000176614
6 *605:6 2.11687e-05
7 *605:7 2.52305e-05
8 *605:8 0.000190518
9 *605:9 2.11687e-05
10 *605:10 0.000173608
11 *605:11 0.000190518
12 *605:13 0.000173608
13 *605:14 5.04611e-05
14 *605:16 5.04611e-05

*RES
1 *605:17 *989:Y 1.4
2 *605:16 *605:17 1.4
3 *605:14 *605:16 0.248565
4 *605:13 *971:A0 1.4
5 *605:11 *605:14 1.4
6 *605:10 *605:13 0.994301
7 *605:9 *972:A 1.4
8 *605:8 *605:11 1.1186
9 *605:7 *605:10 1.4
10 *605:6 *605:9 0.124289
11 *605:5 *605:8 1.4
12 *605:5 *605:7 0.124283
13 *605:4 *605:6 1.4
14 *605:4 *605:5 0.745696
15 *605:3 *605:4 0.621413
16 *605:2 *605:3 1.4
17 *605:1 *605:2 0.124289
18 *973:A *605:1 1.4
*END

*D_NET *606 0.00364586

*CONN
*I *943:A I *C 69.165 73.515 *L 0.00162 *D NOR2XL
*I *938:A0 I *C 71.485 73.515 *L 0.00155 *D AO21X1
*I *975:AN I *C 71.485 75.835 *L 0.0018 *D NAND4BXL
*I *988:Y O *C 74.965 63.365 *L 0 *D NAND4XL

*CAP
1 *606:1 4.81128e-05
2 *606:2 4.81128e-05
3 *606:3 0.000219177
4 *606:4 0.000219177
5 *606:5 0.000938199
6 *606:6 0.000240564
7 *606:7 0.000890086
8 *606:8 0.000192451
9 *606:10 0.000328765
10 *606:12 0.000328765
11 *606:13 9.62255e-05
12 *606:14 9.62255e-05

*RES
1 *606:14 *988:Y 1.4
2 *606:13 *606:14 0.497155
3 *606:12 *606:13 1.4
4 *606:10 *606:12 1.49146
5 *606:8 *975:AN 1.4
6 *606:7 *606:10 1.4
7 *606:6 *938:A0 1.4
8 *606:6 *606:8 0.99431
9 *606:5 *606:7 4.59868
10 *606:5 *606:6 0.248578
11 *606:4 *606:5 1.4
12 *606:3 *606:4 0.99431
13 *606:2 *606:3 1.4
14 *606:1 *606:2 0.248578
15 *943:A *606:1 1.4
*END

*D_NET *607 0.00347611

*CONN
*I *978:AN I *C 67.135 70.615 *L 0.00174 *D NAND2BXL
*I *931:A0 I *C 61.625 73.515 *L 0.00155 *D AO21X1
*I *933:A I *C 61.335 70.325 *L 0.00162 *D NOR2XL
*I *987:Y O *C 54.085 72.935 *L 0 *D NAND3X1

*CAP
1 *607:1 7.21692e-05
2 *607:2 7.21692e-05
3 *607:3 0.000520545
4 *607:4 0.000520545
5 *607:5 0.000216507
6 *607:6 0.000168395
7 *607:7 4.81128e-05
8 *607:9 2.73971e-05
9 *607:10 0.000712324
10 *607:11 4.81128e-05
11 *607:12 0.000684927
12 *607:13 4.81128e-05
13 *607:14 0.000168395
14 *607:16 0.000168395

*RES
1 *607:16 *987:Y 1.4
2 *607:14 *607:16 0.870021
3 *607:13 *933:A 1.4
4 *607:12 *607:14 1.4
5 *607:11 *607:13 0.248578
6 *607:10 *607:12 3.10722
7 *607:10 *607:11 1.4
8 *607:9 *607:10 0.124289
9 *607:7 *607:9 1.4
10 *607:6 *931:A0 1.4
11 *607:5 *607:7 0.248578
12 *607:5 *607:6 0.870021
13 *607:4 *607:5 1.4
14 *607:3 *607:4 2.36149
15 *607:2 *607:3 1.4
16 *607:1 *607:2 0.372866
17 *978:AN *607:1 1.4
*END

*D_NET *608 0.00129031

*CONN
*I *971:B0 I *C 63.655 26.535 *L 0.0028 *D OAI21X1
*I *970:A0 I *C 61.335 26.535 *L 0.00271 *D OAI21X1
*I *986:Y O *C 58.145 27.115 *L 0 *D NOR2X1

*CAP
1 *608:1 2.40074e-05
2 *608:2 2.40074e-05
3 *608:3 0.000221103
4 *608:4 0.00052512
5 *608:5 2.40074e-05
6 *608:6 0.000304017
7 *608:7 2.40074e-05
8 *608:8 7.20223e-05
9 *608:10 7.20223e-05

*RES
1 *608:10 *986:Y 1.4
2 *608:8 *608:10 0.372848
3 *608:7 *970:A0 1.4
4 *608:6 *608:8 1.4
5 *608:5 *608:7 0.124283
6 *608:4 *608:6 1.36717
7 *608:4 *608:5 1.4
8 *608:3 *608:4 0.994306
9 *608:2 *608:3 1.4
10 *608:1 *608:2 0.124283
11 *971:B0 *608:1 1.4
*END

*D_NET *609 0.00478569

*CONN
*I *978:B I *C 66.555 70.325 *L 0.00168 *D NAND2BXL
*I *927:A0 I *C 66.265 68.295 *L 0.00271 *D OAI21X1
*I *985:Y O *C 71.195 47.705 *L 0 *D NOR3BX1

*CAP
1 *609:2 2.73971e-05
2 *609:3 2.73971e-05
3 *609:4 0.000144338
4 *609:5 0.000168395
5 *609:6 0.000465751
6 *609:7 2.40564e-05
7 *609:8 0.000465751
8 *609:10 0.0017313
9 *609:11 0.0017313

*RES
1 *609:11 *985:Y 1.4
2 *609:10 *609:11 8.9487
3 *609:8 *609:10 1.4
4 *609:7 *927:A0 1.4
5 *609:6 *609:8 2.11291
6 *609:5 *609:7 0.124289
7 *609:5 *609:6 1.4
8 *609:4 *609:5 0.745732
9 *609:3 *609:4 1.4
10 *609:2 *609:3 0.124289
11 *609:1 *609:2 1.4
12 *978:B *609:1 1.4
*END

*D_NET *610 0.00189312

*CONN
*I *977:A I *C 49.735 52.345 *L 0.00157 *D NAND2XL
*I *981:Y O *C 48.285 47.705 *L 0 *D AOI211X1

*CAP
1 *610:1 2.51874e-05
2 *610:2 2.51874e-05
3 *610:3 0.000343302
4 *610:4 0.000343302
5 *610:5 0.000377812
6 *610:6 0.000377812
7 *610:7 0.000200259
8 *610:8 0.000200259

*RES
1 *610:9 *981:Y 1.4
2 *610:8 *610:9 1.4
3 *610:7 *610:8 0.870021
4 *610:6 *610:7 1.4
5 *610:5 *610:6 1.86432
6 *610:4 *610:5 1.4
7 *610:3 *610:4 1.49146
8 *610:2 *610:3 1.4
9 *610:1 *610:2 0.124288
10 *977:A *610:1 1.4
*END

*D_NET *611 0.00457402

*CONN
*I *966:A I *C 63.945 73.515 *L 0.00171 *D OR4X1
*I *984:Y O *C 83.375 70.035 *L 0 *D NAND4XL
*I *980:A I *C 64.815 68.295 *L 0.00273 *D CLKINVX1

*CAP
1 *611:1 4.81128e-05
2 *611:2 4.81128e-05
3 *611:3 2.73971e-05
4 *611:4 2.73971e-05
5 *611:5 0.000336789
6 *611:6 0.000336789
7 *611:7 5.47942e-05
8 *611:8 0.00173037
9 *611:9 0.00167558
10 *611:10 0.000144338
11 *611:12 0.000144338

*RES
1 *611:12 *980:A 1.4
2 *611:11 *984:Y 1.4
3 *611:10 *611:12 0.745732
4 *611:9 *611:11 1.4
5 *611:8 *611:10 1.4
6 *611:8 *611:9 7.95448
7 *611:7 *611:8 0.248577
8 *611:6 *611:7 1.4
9 *611:5 *611:6 1.74004
10 *611:4 *611:5 1.4
11 *611:3 *611:4 0.124289
12 *611:2 *611:3 1.4
13 *611:1 *611:2 0.248578
14 *966:A *611:1 1.4
*END

*D_NET *612 0.00110247

*CONN
*I *953:A I *C 59.015 68.005 *L 0.00157 *D NAND2XL
*I *945:A0 I *C 61.915 68.295 *L 0.00271 *D OAI21X1
*I *980:Y O *C 64.4425 68.295 *L 0 *D CLKINVX1

*CAP
1 *612:1 2.40564e-05
2 *612:2 2.40564e-05
3 *612:3 0.000273971
4 *612:4 0.000520545
5 *612:5 0.000246574
6 *612:7 6.63624e-06
7 *612:9 6.63624e-06

*RES
1 *612:9 *980:Y 1.4
2 *612:7 *612:9 0.0342866
3 *612:6 *945:A0 1.4
4 *612:5 *612:7 1.4
5 *612:4 *612:6 1.4
6 *612:4 *612:5 1.1186
7 *612:3 *612:4 1.24289
8 *612:2 *612:3 1.4
9 *612:1 *612:2 0.124289
10 *953:A *612:1 1.4
*END

*D_NET *613 0.00869069

*CONN
*I *966:B I *C 63.075 72.935 *L 0.00168 *D OR4X1
*I *965:A I *C 55.825 73.515 *L 0.00162 *D NOR2XL
*I *963:A0 I *C 41.615 73.515 *L 0.00155 *D AO21X1
*I *983:Y O *C 23.635 80.475 *L 0 *D NAND4XL

*CAP
1 *613:1 4.81128e-05
2 *613:2 4.81128e-05
3 *613:3 0.000684927
4 *613:4 0.00205926
5 *613:6 0.0030746
6 *613:9 0.00170026
7 *613:11 0.00053771
8 *613:12 0.00053771

*RES
1 *613:12 *983:Y 1.4
2 *613:11 *613:12 2.98282
3 *613:9 *613:11 1.4
4 *613:8 *963:A0 1.4
5 *613:6 *613:9 7.70559
6 *613:6 *613:8 1.4
7 *613:5 *965:A 1.4
8 *613:4 *613:6 6.08993
9 *613:4 *613:5 1.4
10 *613:3 *613:4 3.10722
11 *613:2 *613:3 1.4
12 *613:1 *613:2 0.248578
13 *966:B *613:1 1.4
*END

*D_NET *614 0.00369585

*CONN
*I *955:A0 I *C 30.885 63.075 *L 0.00271 *D OAI21X1
*I *976:B I *C 29.435 57.565 *L 0.00169 *D AND2XL
*I *982:Y O *C 23.055 70.035 *L 0 *D NOR3X1

*CAP
1 *614:1 0.000100749
2 *614:2 0.000100749
3 *614:3 0.000141352
4 *614:4 0.000141352
5 *614:5 0.000528934
6 *614:6 0.000151124
7 *614:7 0.00037781
8 *614:8 0.000557084
9 *614:10 0.000557084
10 *614:11 0.000519803
11 *614:12 0.000519803

*RES
1 *614:12 *982:Y 1.4
2 *614:11 *614:12 2.73422
3 *614:10 *614:11 1.4
4 *614:8 *614:10 2.73428
5 *614:7 *976:B 1.4
6 *614:6 *614:8 1.4
7 *614:5 *614:7 1.86433
8 *614:5 *614:6 0.745732
9 *614:4 *614:5 1.4
10 *614:3 *614:4 0.621414
11 *614:2 *614:3 1.4
12 *614:1 *614:2 0.497155
13 *955:A0 *614:1 1.4
*END

*D_NET *615 0.00118677

*CONN
*I *966:C I *C 62.785 73.225 *L 0.00167 *D OR4X1
*I *978:Y O *C 66.265 70.035 *L 0 *D NAND2BXL

*CAP
1 *615:1 0.000240564
2 *615:2 0.000240564
3 *615:3 0.000328765
4 *615:4 0.000328765
5 *615:5 2.40564e-05
6 *615:6 2.40564e-05

*RES
1 *615:6 *978:Y 1.4
2 *615:5 *615:6 0.124289
3 *615:4 *615:5 1.4
4 *615:3 *615:4 1.49146
5 *615:2 *615:3 1.4
6 *615:1 *615:2 1.24289
7 *966:C *615:1 1.4
*END

*D_NET *616 0.00775203

*CONN
*I *971:A1 I *C 64.235 26.245 *L 0.00274 *D OAI21X1
*I *972:B I *C 63.945 23.635 *L 0.00363 *D CLKXOR2X1
*I *973:B I *C 60.175 23.635 *L 0.00169 *D OR2XL
*I *974:B0 I *C 25.085 26.535 *L 0.00175 *D AO21X1
*I *979:Y O *C 24.505 24.215 *L 0 *D NOR2X2

*CAP
1 *616:1 2.25881e-05
2 *616:2 2.25881e-05
3 *616:3 2.52305e-05
4 *616:4 2.52305e-05
5 *616:5 0.000169349
6 *616:6 0.000169349
7 *616:8 0.000327997
8 *616:9 0.00340584
9 *616:11 0.00307784
10 *616:13 4.1014e-05
11 *616:14 0.000209468
12 *616:15 0.000168454
13 *616:16 4.35373e-05
14 *616:18 4.35373e-05

*RES
1 *616:19 *979:Y 1.4
2 *616:18 *616:19 1.4
3 *616:16 *616:18 0.248578
4 *616:15 *974:B0 1.4
5 *616:14 *616:16 1.4
6 *616:14 *616:15 0.994266
7 *616:13 *616:14 0.248567
8 *616:11 *616:13 1.4
9 *616:10 *973:B 1.4
10 *616:9 *616:11 15.0382
11 *616:9 *616:10 1.4
12 *616:8 *616:9 1.61567
13 *616:6 *616:8 1.4
14 *616:6 *972:B 1.4
15 *616:5 *616:6 0.99431
16 *616:4 *616:5 1.4
17 *616:3 *616:4 0.124283
18 *616:2 *616:3 1.4
19 *616:1 *616:2 0.124286
20 *971:A1 *616:1 1.4
*END

*D_NET *617 0.000270372

*CONN
*I *967:A I *C 31.755 57.855 *L 0.00267 *D NAND2X1
*I *976:Y O *C 30.885 57.275 *L 0 *D AND2XL

*CAP
1 *617:2 8.48115e-05
2 *617:3 8.48115e-05
3 *617:4 5.03747e-05
4 *617:5 5.03747e-05

*RES
1 *617:5 *976:Y 1.4
2 *617:4 *617:5 0.248578
3 *617:3 *617:4 1.4
4 *617:2 *617:3 0.372849
5 *617:1 *617:2 1.4
6 *967:A *617:1 1.4
*END

*D_NET *618 0.00076511

*CONN
*I *968:A0 I *C 53.795 52.635 *L 0.00155 *D AO21X1
*I *969:A I *C 52.345 52.635 *L 0.00263 *D NOR2X1
*I *977:Y O *C 50.315 52.925 *L 0 *D NAND2XL

*CAP
1 *618:1 2.40564e-05
2 *618:2 2.40564e-05
3 *618:3 0.000136985
4 *618:4 0.000334442
5 *618:5 2.40564e-05
6 *618:6 0.000197457
7 *618:7 2.40564e-05

*RES
1 *618:8 *977:Y 1.4
2 *618:7 *969:A 1.4
3 *618:6 *618:8 1.4
4 *618:5 *618:7 0.124289
5 *618:4 *618:6 0.869983
6 *618:4 *618:5 1.4
7 *618:3 *618:4 0.621444
8 *618:2 *618:3 1.4
9 *618:1 *618:2 0.124289
10 *968:A0 *618:1 1.4
*END

*D_NET *619 0.000473103

*CONN
*I *964:A I *C 68.585 75.835 *L 0.00173 *D OR2X1
*I *975:Y O *C 70.325 76.125 *L 0 *D NAND4BXL

*CAP
1 *619:1 4.81128e-05
2 *619:2 4.81128e-05
3 *619:3 0.000164383
4 *619:4 0.000164383
5 *619:5 2.40564e-05
6 *619:6 2.40564e-05

*RES
1 *619:6 *975:Y 1.4
2 *619:5 *619:6 0.124289
3 *619:4 *619:5 1.4
4 *619:3 *619:4 0.745732
5 *619:2 *619:3 1.4
6 *619:1 *619:2 0.248578
7 *964:A *619:1 1.4
*END

*D_NET *620 0.000654146

*CONN
*I *970:A1 I *C 61.045 26.245 *L 0.00274 *D OAI21X1
*I *973:Y O *C 61.625 23.055 *L 0 *D OR2XL

*CAP
1 *620:1 0.000255443
2 *620:2 0.000255443
3 *620:3 5.04611e-05
4 *620:4 5.04611e-05
5 *620:5 2.11687e-05
6 *620:6 2.11687e-05

*RES
1 *620:6 *973:Y 1.4
2 *620:5 *620:6 0.124289
3 *620:4 *620:5 1.4
4 *620:3 *620:4 0.248565
5 *620:2 *620:3 1.4
6 *620:1 *620:2 1.49146
7 *970:A1 *620:1 1.4
*END

*D_NET *621 0.00651098

*CONN
*I *969:B I *C 52.635 52.635 *L 0.0028 *D NOR2X1
*I *968:A1 I *C 54.085 52.925 *L 0.00163 *D AO21X1
*I *971:Y O *C 63.365 26.825 *L 0 *D OAI21X1
*I *970:B0 I *C 60.465 26.535 *L 0.0028 *D OAI21X1

*CAP
1 *621:1 4.80883e-05
2 *621:2 4.80883e-05
3 *621:3 0.000138189
4 *621:4 0.000138189
5 *621:5 0.00216079
6 *621:6 7.21447e-05
7 *621:7 0.00208865
8 *621:9 0.000608033
9 *621:10 0.000884412
10 *621:11 0.000276379
11 *621:12 2.40074e-05
12 *621:14 2.40074e-05

*RES
1 *621:14 *970:B0 1.4
2 *621:13 *971:Y 1.4
3 *621:12 *621:14 0.124283
4 *621:11 *621:13 1.4
5 *621:10 *621:12 1.4
6 *621:10 *621:11 1.24288
7 *621:9 *621:10 2.73434
8 *621:7 *621:9 1.4
9 *621:6 *968:A1 1.4
10 *621:5 *621:7 10.8126
11 *621:5 *621:6 0.372863
12 *621:4 *621:5 1.4
13 *621:3 *621:4 0.621441
14 *621:2 *621:3 1.4
15 *621:1 *621:2 0.248574
16 *969:B *621:1 1.4
*END

*D_NET *622 0.0023348

*CONN
*I *964:B I *C 67.715 75.545 *L 0.00165 *D OR2X1
*I *962:AN I *C 67.715 73.515 *L 0.00178 *D NAND2BX1
*I *927:B0 I *C 67.135 68.295 *L 0.0028 *D OAI21X1
*I *961:AN I *C 65.685 75.835 *L 0.00174 *D NOR2BX1
*I *966:Y O *C 64.525 73.805 *L 0 *D OR4X1

*CAP
1 *622:1 0.000168395
2 *622:2 0.000240564
3 *622:4 7.21692e-05
4 *622:5 5.47942e-05
5 *622:6 0.00019178
6 *622:7 0.000360846
7 *622:8 0.000136985
8 *622:9 0.000360846
9 *622:10 9.62255e-05
10 *622:12 0.00026462
11 *622:13 0.000168395
12 *622:14 0.000109588
13 *622:16 0.000109588

*RES
1 *622:17 *966:Y 1.4
2 *622:16 *622:17 1.4
3 *622:14 *622:16 0.497155
4 *622:13 *961:AN 1.4
5 *622:12 *622:14 1.4
6 *622:12 *622:13 0.870021
7 *622:10 *622:12 0.497155
8 *622:9 *927:B0 1.4
9 *622:8 *622:10 1.4
10 *622:7 *622:9 1.86433
11 *622:6 *622:8 0.621444
12 *622:6 *622:7 1.4
13 *622:5 *622:6 0.248577
14 *622:4 *622:5 1.4
15 *622:2 *622:4 0.372866
16 *622:2 *962:AN 1.4
17 *622:1 *622:2 0.870021
18 *964:B *622:1 1.4
*END

*D_NET *623 0.00504243

*CONN
*I *945:A1 I *C 62.205 68.005 *L 0.00274 *D OAI21X1
*I *953:B I *C 58.435 68.005 *L 0.00167 *D NAND2XL
*I *965:Y O *C 56.405 72.935 *L 0 *D NOR2XL
*I *963:B0 I *C 40.745 73.515 *L 0.00175 *D AO21X1

*CAP
1 *623:2 0.000356162
2 *623:3 0.000547942
3 *623:5 0.00019178
4 *623:7 0.000408959
5 *623:8 0.000408959
6 *623:9 0.00151394
7 *623:11 0.00151394
8 *623:12 5.03747e-05
9 *623:13 5.03747e-05

*RES
1 *623:13 *963:B0 1.4
2 *623:12 *623:13 0.248578
3 *623:11 *623:12 1.4
4 *623:9 *623:11 6.71136
5 *623:8 *965:Y 1.4
6 *623:8 *623:9 1.4
7 *623:7 *623:8 2.11291
8 *623:5 *623:7 1.4
9 *623:4 *953:B 1.4
10 *623:3 *623:5 0.870021
11 *623:3 *623:4 1.4
12 *623:2 *623:3 1.61575
13 *623:1 *623:2 1.4
14 *945:A1 *623:1 1.4
*END

*D_NET *624 0.0112069

*CONN
*I *956:B I *C 79.315 26.825 *L 0.00284 *D NAND2X1
*I *958:C I *C 76.995 28.565 *L 0.00285 *D NAND3X1
*I *926:B0 I *C 69.455 80.765 *L 0.0028 *D OAI21X1
*I *964:Y O *C 69.165 76.125 *L 0 *D OR2X1

*CAP
1 *624:1 2.22686e-05
2 *624:2 2.22686e-05
3 *624:3 0.000207732
4 *624:4 0.000207732
5 *624:5 0.000168052
6 *624:6 0.00401309
7 *624:7 0.00384503
8 *624:9 0.000547942
9 *624:11 0.000547942
10 *624:13 7.21692e-05
11 *624:14 0.000450647
12 *624:15 0.000378478
13 *624:16 0.00019178
14 *624:17 0.000145959
15 *624:18 0.00019178
16 *624:19 0.000145959
17 *624:20 2.40564e-05
18 *624:22 2.40564e-05

*RES
1 *624:22 *964:Y 1.4
2 *624:21 *926:B0 1.4
3 *624:20 *624:22 0.124289
4 *624:19 *624:21 1.4
5 *624:18 *624:20 1.4
6 *624:17 *624:19 0.745732
7 *624:16 *624:18 0.870021
8 *624:15 *624:17 1.4
9 *624:14 *624:16 1.4
10 *624:14 *624:15 2.1129
11 *624:13 *624:14 0.372866
12 *624:11 *624:13 1.4
13 *624:10 *958:C 1.4
14 *624:9 *624:11 2.48577
15 *624:8 *624:10 1.4
16 *624:7 *624:9 1.4
17 *624:6 *624:8 1.4
18 *624:6 *624:7 19.8857
19 *624:5 *624:6 0.869979
20 *624:4 *624:5 1.4
21 *624:3 *624:4 0.994286
22 *624:2 *624:3 1.4
23 *624:1 *624:2 0.124288
24 *956:B *624:1 1.4
*END

*D_NET *625 0.000393243

*CONN
*I *957:B I *C 65.105 73.515 *L 0.0028 *D NOR2BX1
*I *961:Y O *C 64.825 75.545 *L 0 *D NOR2BX1

*CAP
1 *625:2 2.73971e-05
2 *625:3 2.73971e-05
3 *625:4 0.000168395
4 *625:5 0.000169224
5 *625:6 8.29531e-07

*RES
1 *625:6 *961:Y 1.4
2 *625:5 *625:6 0.00428582
3 *625:4 *625:5 0.870021
4 *625:3 *625:4 1.4
5 *625:2 *625:3 0.124289
6 *625:1 *625:2 1.4
7 *957:B *625:1 1.4
*END

*D_NET *626 0.0014732

*CONN
*I *955:A1 I *C 31.175 62.785 *L 0.00274 *D OAI21X1
*I *960:CO O *C 31.755 54.955 *L 0 *D ADDHX1

*CAP
1 *626:2 2.82705e-05
2 *626:3 2.82705e-05
3 *626:4 0.000680058
4 *626:5 0.000680058
5 *626:6 2.82705e-05
6 *626:7 2.82705e-05

*RES
1 *626:8 *960:CO 1.4
2 *626:7 *626:8 1.4
3 *626:6 *626:7 0.124283
4 *626:5 *626:6 1.4
5 *626:4 *626:5 3.3558
6 *626:3 *626:4 1.4
7 *626:2 *626:3 0.124283
8 *626:1 *626:2 1.4
9 *955:A1 *626:1 1.4
*END

*D_NET *627 0.00390004

*CONN
*I *1273:A0 I *C 30.885 49.735 *L 0.00164 *D OAI21XL
*I *1298:A0 I *C 30.595 41.905 *L 0.00267 *D OAI211X1
*I *960:S O *C 27.48 54.45 *L 0 *D ADDHX1
*I *959:A I *C 27.115 54.665 *L 0.00273 *D CLKINVX1
*I *1266:A0 I *C 27.695 57.565 *L 0.00164 *D OAI21XL

*CAP
1 *627:1 7.55623e-05
2 *627:2 7.55623e-05
3 *627:3 2.86085e-05
4 *627:4 0.000143042
5 *627:5 0.000755623
6 *627:6 0.000114434
7 *627:7 0.000755623
8 *627:8 0.000302249
9 *627:10 0.000302249
10 *627:11 0.000113082
11 *627:12 0.000197893
12 *627:13 0.000302248
13 *627:14 0.000113082
14 *627:15 0.000302248
15 *627:16 3.17013e-05
16 *627:17 2.82705e-05
17 *627:18 5.6541e-05
18 *627:19 3.82153e-05
19 *627:20 5.03747e-05
20 *627:21 5.6541e-05
21 *627:22 6.51397e-06
22 *627:23 5.03747e-05

*RES
1 *627:24 *1266:A0 1.4
2 *627:23 *959:A 1.4
3 *627:22 *960:S 1.4
4 *627:21 *627:24 1.4
5 *627:20 *627:23 0.248578
6 *627:19 *627:22 0.0321436
7 *627:18 *627:21 0.248566
8 *627:17 *627:20 1.4
9 *627:16 *627:19 0.156432
10 *627:15 *627:18 1.4
11 *627:14 *627:17 0.124283
12 *627:14 *627:16 1.4
13 *627:13 *627:15 1.49146
14 *627:12 *627:14 0.372849
15 *627:12 *627:13 1.4
16 *627:11 *627:12 0.497131
17 *627:10 *627:11 1.4
18 *627:8 *627:10 1.49146
19 *627:7 *1298:A0 1.4
20 *627:6 *627:8 1.4
21 *627:5 *627:7 3.72863
22 *627:4 *627:6 0.497155
23 *627:4 *627:5 1.4
24 *627:3 *627:4 0.124289
25 *627:2 *627:3 1.4
26 *627:1 *627:2 0.372863
27 *1273:A0 *627:1 1.4
*END

*D_NET *628 0.00137788

*CONN
*I *938:A1 I *C 71.195 73.805 *L 0.00163 *D AO21X1
*I *943:B I *C 68.875 73.225 *L 0.00171 *D NOR2XL
*I *962:Y O *C 66.845 74.095 *L 0 *D NAND2BX1
*I *957:AN I *C 65.685 73.225 *L 0.00174 *D NOR2BX1

*CAP
1 *628:1 2.40564e-05
2 *628:2 2.40564e-05
3 *628:3 0.000219177
4 *628:4 0.000410956
5 *628:5 7.21692e-05
6 *628:6 0.00019178
7 *628:7 7.21692e-05
8 *628:8 7.21692e-05
9 *628:11 7.21692e-05
10 *628:12 0.000109588
11 *628:13 0.000109588

*RES
1 *628:14 *957:AN 1.4
2 *628:13 *628:14 1.4
3 *628:12 *628:13 0.497155
4 *628:11 *628:12 1.4
5 *628:8 *628:11 0.372866
6 *628:8 *962:Y 1.4
7 *628:7 *943:B 1.4
8 *628:6 *628:8 1.4
9 *628:5 *628:7 0.372866
10 *628:4 *628:6 0.870021
11 *628:4 *628:5 1.4
12 *628:3 *628:4 0.99431
13 *628:2 *628:3 1.4
14 *628:1 *628:2 0.124289
15 *938:A1 *628:1 1.4
*END

*D_NET *629 0.013916

*CONN
*I *1218:C I *C 18.705 33.785 *L 0.00291 *D NOR3BX1
*I *1216:AN I *C 23.055 31.755 *L 0.00178 *D NAND2BX1
*I *954:B I *C 24.795 28.565 *L 0.00165 *D OR2X1
*I *958:Y O *C 76.705 29.145 *L 0 *D NAND3X1
*I *952:B I *C 85.405 31.465 *L 0.00171 *D NOR2XL

*CAP
1 *629:2 0.000379188
2 *629:3 0.000379188
3 *629:4 0.000164075
4 *629:5 0.000398469
5 *629:6 2.36992e-05
6 *629:7 0.000234394
7 *629:8 2.36992e-05
8 *629:9 0.000118496
9 *629:11 0.00513531
10 *629:13 0.00501681
11 *629:14 2.34394e-05
12 *629:15 2.40074e-05
13 *629:16 2.34394e-05
14 *629:17 0.000240074
15 *629:19 0.000216067
16 *629:21 0.000735541
17 *629:22 0.000735541
18 *629:23 2.22686e-05
19 *629:24 2.22686e-05

*RES
1 *629:24 *952:B 1.4
2 *629:23 *629:24 0.124288
3 *629:22 *629:23 1.4
4 *629:21 *629:22 3.72851
5 *629:19 *629:21 1.4
6 *629:17 *958:Y 1.4
7 *629:17 *629:19 1.11854
8 *629:16 *954:B 1.4
9 *629:15 *629:17 0.124283
10 *629:14 *629:16 0.124283
11 *629:13 *629:15 1.4
12 *629:11 *629:14 1.4
13 *629:11 *629:13 22.2476
14 *629:10 *1216:AN 1.4
15 *629:9 *629:11 0.621444
16 *629:8 *629:10 1.4
17 *629:7 *629:9 1.4
18 *629:6 *629:8 0.124289
19 *629:5 *629:7 1.24283
20 *629:5 *629:6 1.4
21 *629:4 *629:5 0.869979
22 *629:3 *629:4 1.4
23 *629:2 *629:3 1.98862
24 *629:1 *629:2 1.4
25 *1218:C *629:1 1.4
*END

*D_NET *630 0.00054684

*CONN
*I *925:D I *C 84.535 28.855 *L 0.00183 *D SDFFQX1
*I *952:Y O *C 85.695 31.175 *L 0 *D NOR2XL

*CAP
1 *630:1 4.45373e-05
2 *630:2 4.45373e-05
3 *630:3 9.52707e-05
4 *630:4 9.52707e-05
5 *630:5 0.000133612
6 *630:6 0.000133612

*RES
1 *630:6 *952:Y 1.4
2 *630:5 *630:6 0.745727
3 *630:4 *630:5 1.4
4 *630:3 *630:4 0.497131
5 *630:2 *630:3 1.4
6 *630:1 *630:2 0.248576
7 *925:D *630:1 1.4
*END

*D_NET *631 0.00175992

*CONN
*I *949:C I *C 14.065 39.295 *L 0.00167 *D AND3X1
*I *948:B I *C 16.675 39.295 *L 0.00172 *D AND2X1
*I *946:C I *C 17.835 36.685 *L 0.00167 *D AND3X1
*I *947:C I *C 21.025 36.685 *L 0.00167 *D AND3X1
*I *951:Y O *C 20.3625 36.975 *L 0 *D CLKINVX1

*CAP
1 *631:1 2.34394e-05
2 *631:2 2.34394e-05
3 *631:3 0.000213293
4 *631:4 0.00030809
5 *631:5 9.47969e-05
6 *631:6 2.34394e-05
7 *631:7 0.000140636
8 *631:8 2.34394e-05
9 *631:9 0.000187515
10 *631:11 0.000213293
11 *631:12 4.68787e-05
12 *631:13 0.000260692
13 *631:15 4.73985e-05
14 *631:16 2.34394e-05
15 *631:17 4.68787e-05
16 *631:18 2.99054e-05
17 *631:19 4.68787e-05
18 *631:20 6.46603e-06

*RES
1 *631:20 *951:Y 1.4
2 *631:19 *947:C 1.4
3 *631:18 *631:20 0.0342849
4 *631:17 *631:19 0.248565
5 *631:16 *631:18 0.124283
6 *631:15 *631:17 1.4
7 *631:13 *631:16 1.4
8 *631:13 *631:15 0.248577
9 *631:12 *946:C 1.4
10 *631:11 *631:13 1.1186
11 *631:9 *631:12 0.248565
12 *631:9 *631:11 1.4
13 *631:8 *948:B 1.4
14 *631:7 *631:9 0.745696
15 *631:6 *631:8 0.124283
16 *631:5 *631:7 1.4
17 *631:4 *631:6 1.4
18 *631:4 *631:5 0.497155
19 *631:3 *631:4 1.1186
20 *631:2 *631:3 1.4
21 *631:1 *631:2 0.124283
22 *949:C *631:1 1.4
*END

*D_NET *632 0.00207953

*CONN
*I *931:A1 I *C 61.335 73.805 *L 0.00163 *D AO21X1
*I *933:B I *C 61.045 70.615 *L 0.00171 *D NOR2XL
*I *945:B0 I *C 62.785 68.295 *L 0.0028 *D OAI21X1
*I *953:Y O *C 58.435 68.585 *L 0 *D NAND2XL

*CAP
1 *632:2 2.73971e-05
2 *632:3 2.73971e-05
3 *632:4 0.00026462
4 *632:5 0.000433015
5 *632:7 0.000240564
6 *632:8 0.000164383
7 *632:9 7.21692e-05
8 *632:10 0.000164383
9 *632:11 0.000246574
10 *632:12 2.40564e-05
11 *632:13 0.000246574
12 *632:14 2.40564e-05
13 *632:15 7.21692e-05
14 *632:17 7.21692e-05

*RES
1 *632:17 *953:Y 1.4
2 *632:15 *632:17 0.372866
3 *632:14 *945:B0 1.4
4 *632:13 *632:15 1.4
5 *632:12 *632:14 0.124289
6 *632:11 *632:13 1.1186
7 *632:10 *632:12 1.4
8 *632:9 *632:11 1.4
9 *632:8 *632:10 0.745732
10 *632:7 *632:9 0.372866
11 *632:7 *632:8 1.4
12 *632:5 *632:7 0.870021
13 *632:5 *933:B 1.4
14 *632:4 *632:5 1.36718
15 *632:3 *632:4 1.4
16 *632:2 *632:3 0.124289
17 *632:1 *632:2 1.4
18 *931:A1 *632:1 1.4
*END

*D_NET *633 0.00246762

*CONN
*I *937:B I *C 27.405 41.905 *L 0.00172 *D AND2X1
*I *939:A I *C 32.625 36.975 *L 0.00273 *D INVX1
*I *944:Y O *C 25.085 36.395 *L 0 *D NOR2XL

*CAP
1 *633:2 2.86085e-05
2 *633:3 2.86085e-05
3 *633:4 0.000428186
4 *633:5 0.000478561
5 *633:6 0.000543561
6 *633:7 5.03749e-05
7 *633:8 0.000543561
8 *633:9 0.000183077
9 *633:11 0.000183077

*RES
1 *633:13 *944:Y 1.4
2 *633:11 *633:13 1.4
3 *633:10 *939:A 1.4
4 *633:9 *633:11 0.870021
5 *633:8 *633:10 1.4
6 *633:7 *633:9 1.4
7 *633:6 *633:8 2.36149
8 *633:5 *633:7 0.248575
9 *633:5 *633:6 1.4
10 *633:4 *633:5 2.11289
11 *633:3 *633:4 1.4
12 *633:2 *633:3 0.124289
13 *633:1 *633:2 1.4
14 *937:B *633:1 1.4
*END

*D_NET *634 0.00256216

*CONN
*I *935:B I *C 44.805 36.975 *L 0.00165 *D OR2X1
*I *936:B I *C 43.065 36.975 *L 0.00165 *D OR2X1
*I *934:B I *C 40.165 36.975 *L 0.00165 *D OR2X1
*I *939:Y O *C 32.9975 36.975 *L 0 *D INVX1

*CAP
1 *634:1 2.51874e-05
2 *634:2 2.51874e-05
3 *634:3 0.000171651
4 *634:4 0.000457736
5 *634:5 2.51874e-05
6 *634:6 0.0010013
7 *634:7 2.51874e-05
8 *634:8 2.51874e-05
9 *634:9 0.000715212
10 *634:11 2.51874e-05
11 *634:12 2.51874e-05
12 *634:14 3.257e-05
13 *634:15 7.38252e-06

*RES
1 *634:15 *939:Y 1.4
2 *634:14 *634:15 0.0364292
3 *634:12 *634:14 0.124288
4 *634:11 *934:B 1.4
5 *634:9 *634:12 1.4
6 *634:8 *634:11 0.124288
7 *634:7 *936:B 1.4
8 *634:6 *634:9 3.10722
9 *634:6 *634:8 1.4
10 *634:5 *634:7 0.124288
11 *634:4 *634:6 1.24289
12 *634:4 *634:5 1.4
13 *634:3 *634:4 0.745732
14 *634:2 *634:3 1.4
15 *634:1 *634:2 0.124288
16 *935:B *634:1 1.4
*END

*D_NET *635 0.00178058

*CONN
*I *932:B I *C 72.935 78.445 *L 0.00167 *D NAND2XL
*I *929:B I *C 72.935 75.835 *L 0.00171 *D NOR2XL
*I *938:B0 I *C 70.615 73.515 *L 0.00175 *D AO21X1
*I *943:Y O *C 68.585 72.935 *L 0 *D NOR2XL

*CAP
1 *635:1 0.000214714
2 *635:2 0.000383109
3 *635:4 0.000168395
4 *635:5 0.000219177
5 *635:6 0.000410956
6 *635:7 2.40564e-05
7 *635:8 0.00019178
8 *635:9 2.40564e-05
9 *635:10 7.21692e-05
10 *635:12 7.21692e-05

*RES
1 *635:12 *943:Y 1.4
2 *635:10 *635:12 0.372866
3 *635:9 *938:B0 1.4
4 *635:8 *635:10 1.4
5 *635:7 *635:9 0.124289
6 *635:6 *635:8 0.870021
7 *635:6 *635:7 1.4
8 *635:5 *635:6 0.99431
9 *635:4 *635:5 1.4
10 *635:2 *635:4 0.870021
11 *635:2 *929:B 1.4
12 *635:1 *635:2 1.1186
13 *932:B *635:1 1.4
*END

*D_NET *636 0.00205814

*CONN
*I *927:A1 I *C 66.555 68.005 *L 0.00274 *D OAI21X1
*I *931:B0 I *C 60.755 73.515 *L 0.00175 *D AO21X1
*I *933:Y O *C 60.755 70.905 *L 0 *D NOR2XL

*CAP
1 *636:1 0.00026462
2 *636:2 0.00026462
3 *636:3 0.000547942
4 *636:4 0.000547942
5 *636:5 0.000216507
6 *636:6 0.000192451
7 *636:7 2.40564e-05

*RES
1 *636:7 *933:Y 1.4
2 *636:6 *931:B0 1.4
3 *636:5 *636:7 0.124289
4 *636:5 *636:6 0.99431
5 *636:4 *636:5 1.4
6 *636:3 *636:4 2.48577
7 *636:2 *636:3 1.4
8 *636:1 *636:2 1.36718
9 *927:A1 *636:1 1.4
*END

*D_NET *637 0.000816225

*CONN
*I *930:A I *C 73.215 80.9925 *L 0.00163 *D INVXL
*I *928:B I *C 75.255 78.735 *L 0.00284 *D NAND2BX1
*I *932:Y O *C 72.935 79.025 *L 0 *D NAND2XL

*CAP
1 *637:1 7.05876e-07
2 *637:2 4.94113e-06
3 *637:3 4.23526e-06
4 *637:4 2.43264e-05
5 *637:5 2.43264e-05
6 *637:6 0.000122823
7 *637:7 0.000143293
8 *637:8 0.000145959
9 *637:9 2.04704e-05
10 *637:10 0.000145959
11 *637:11 4.86529e-05
12 *637:12 4.09408e-05
13 *637:13 4.86529e-05
14 *637:14 4.09408e-05

*RES
1 *637:15 *932:Y 1.4
2 *637:14 *928:B 1.4
3 *637:13 *637:15 1.4
4 *637:12 *637:14 0.248576
5 *637:11 *637:13 0.248578
6 *637:10 *637:12 1.4
7 *637:9 *637:11 1.4
8 *637:8 *637:10 0.745732
9 *637:7 *637:9 0.124288
10 *637:7 *637:8 1.4
11 *637:6 *637:7 0.745727
12 *637:5 *637:6 1.4
13 *637:4 *637:5 0.124289
14 *637:3 *637:4 1.4
15 *637:2 *637:3 0.0257147
16 *637:1 *637:2 0.00428579
17 *930:A *637:1 1.4
*END

*D_NET *638 0.000579704

*CONN
*I *926:A1 I *C 70.035 81.055 *L 0.00274 *D OAI21X1
*I *930:Y O *C 72.8525 81.055 *L 0 *D INVXL

*CAP
1 *638:1 2.04704e-05
2 *638:2 2.04704e-05
3 *638:3 0.000243264
4 *638:4 0.000243264
5 *638:5 2.04704e-05
6 *638:6 2.61174e-05
7 *638:7 5.64701e-06

*RES
1 *638:7 *930:Y 1.4
2 *638:6 *638:7 0.0342863
3 *638:5 *638:6 0.124288
4 *638:4 *638:5 1.4
5 *638:3 *638:4 1.24289
6 *638:2 *638:3 1.4
7 *638:1 *638:2 0.124288
8 *926:A1 *638:1 1.4
*END

*D_NET *639 0.000629151

*CONN
*I *928:AN I *C 74.385 78.735 *L 0.00178 *D NAND2BX1
*I *929:Y O *C 73.225 76.125 *L 0 *D NOR2XL

*CAP
1 *639:2 4.86529e-05
2 *639:3 4.86529e-05
3 *639:4 0.000211129
4 *639:5 0.000211129
5 *639:6 5.47942e-05
6 *639:7 5.47942e-05

*RES
1 *639:8 *929:Y 1.4
2 *639:7 *639:8 1.4
3 *639:6 *639:7 0.248577
4 *639:5 *639:6 1.4
5 *639:4 *639:5 1.1186
6 *639:3 *639:4 1.4
7 *639:2 *639:3 0.248578
8 *639:1 *639:2 1.4
9 *928:AN *639:1 1.4
*END

*D_NET *640 0.00351157

*CONN
*I *1279:A0 I *C 38.715 31.465 *L 0.00267 *D OAI211X1
*I *1265:A0 I *C 42.195 31.465 *L 0.00164 *D OAI21XL
*I *924:Y O *C 48.2025 31.755 *L 0 *D CLKINVX1
*I *1268:A0 I *C 50.315 36.685 *L 0.00164 *D OAI21XL

*CAP
1 *640:1 5.03749e-05
2 *640:2 5.03749e-05
3 *640:3 0.000343302
4 *640:4 0.00094408
5 *640:5 0.000600778
6 *640:6 5.03749e-05
7 *640:7 7.55623e-05
8 *640:8 5.03749e-05
9 *640:9 0.000132885
10 *640:11 5.03749e-05
11 *640:12 6.94826e-06
12 *640:13 0.000200259
13 *640:15 0.000200259
14 *640:16 0.000377812
15 *640:17 0.000377812

*RES
1 *640:17 *1268:A0 1.4
2 *640:16 *640:17 1.86432
3 *640:15 *640:16 1.4
4 *640:13 *640:15 0.870021
5 *640:12 *924:Y 1.4
6 *640:11 *640:13 1.4
7 *640:9 *640:12 0.0342863
8 *640:9 *640:11 0.248575
9 *640:8 *1265:A0 1.4
10 *640:7 *640:9 0.372863
11 *640:6 *640:8 0.248575
12 *640:5 *640:7 1.4
13 *640:4 *640:6 1.4
14 *640:4 *640:5 2.61006
15 *640:3 *640:4 1.49146
16 *640:2 *640:3 1.4
17 *640:1 *640:2 0.248575
18 *1279:A0 *640:1 1.4
*END

*D_NET *641 0.002822

*CONN
*I *1272:A0 I *C 31.465 78.445 *L 0.00164 *D OAI21XL
*I *1274:A0 I *C 31.175 70.615 *L 0.00164 *D OAI21XL
*I *1267:A0 I *C 27.405 75.835 *L 0.00164 *D OAI21XL
*I *920:Y O *C 27.0325 73.515 *L 0 *D CLKINVX1

*CAP
1 *641:1 0.00047625
2 *641:2 0.00047625
3 *641:3 2.82705e-05
4 *641:4 0.000395787
5 *641:5 0.000201499
6 *641:6 0.000395787
7 *641:7 0.000201499
8 *641:8 0.000251873
9 *641:9 2.82705e-05
10 *641:11 0.000251873
11 *641:12 5.03747e-05
12 *641:14 5.73229e-05
13 *641:15 6.94823e-06

*RES
1 *641:15 *920:Y 1.4
2 *641:14 *641:15 0.0342866
3 *641:12 *641:14 0.248578
4 *641:11 *1267:A0 1.4
5 *641:9 *641:12 1.4
6 *641:8 *641:11 1.24289
7 *641:7 *1274:A0 1.4
8 *641:6 *641:9 0.124283
9 *641:6 *641:8 1.4
10 *641:5 *641:7 0.99431
11 *641:4 *641:6 1.61568
12 *641:4 *641:5 1.4
13 *641:3 *641:4 0.124283
14 *641:2 *641:3 1.4
15 *641:1 *641:2 2.36148
16 *1272:A0 *641:1 1.4
*END

*D_NET *642 0.00286362

*CONN
*I *1276:A0 I *C 39.585 62.785 *L 0.00164 *D OAI21XL
*I *1269:A0 I *C 41.615 68.005 *L 0.00164 *D OAI21XL
*I *1275:A0 I *C 42.775 70.615 *L 0.00164 *D OAI21XL
*I *919:Y O *C 45.3025 70.325 *L 0 *D CLKINVX1

*CAP
1 *642:1 7.5562e-05
2 *642:2 7.5562e-05
3 *642:3 0.000226164
4 *642:4 0.000226164
5 *642:5 0.000528934
6 *642:6 0.000730433
7 *642:7 0.000201499
8 *642:8 2.82705e-05
9 *642:9 8.48115e-05
10 *642:10 2.82705e-05
11 *642:11 0.000339246
12 *642:13 0.000254434
13 *642:14 2.51873e-05
14 *642:16 6.94823e-06
15 *642:17 2.51873e-05
16 *642:18 6.94823e-06

*RES
1 *642:18 *919:Y 1.4
2 *642:17 *1275:A0 1.4
3 *642:16 *642:18 0.0342866
4 *642:14 *642:17 0.124289
5 *642:13 *642:16 1.4
6 *642:12 *1269:A0 1.4
7 *642:11 *642:14 1.4
8 *642:11 *642:13 1.11855
9 *642:10 *642:12 1.4
10 *642:9 *642:11 0.372849
11 *642:8 *642:10 0.124283
12 *642:7 *642:9 1.4
13 *642:6 *642:8 1.4
14 *642:6 *642:7 0.99431
15 *642:5 *642:6 2.61006
16 *642:4 *642:5 1.4
17 *642:3 *642:4 0.994263
18 *642:2 *642:3 1.4
19 *642:1 *642:2 0.372866
20 *1276:A0 *642:1 1.4
*END

*D_NET *643 0.0099515

*CONN
*I *769:SI I *C 39.005 5.365 *L 0.00172 *D SDFFQX1
*I *754:SI I *C 41.905 5.365 *L 0.00172 *D SDFFQX1
*I *904:D I *C 42.195 7.975 *L 0.00181 *D SDFFQXL
*I *889:SI I *C 35.525 7.975 *L 0.00172 *D SDFFQX1
*I *874:D I *C 42.195 10.585 *L 0.00183 *D SDFFQX1
*I *799:SI I *C 30.595 5.365 *L 0.00172 *D SDFFQX1
*I *739:SI I *C 42.485 15.805 *L 0.00172 *D SDFFQX1
*I *784:SI I *C 30.015 10.585 *L 0.00172 *D SDFFQX1
*I *724:D I *C 31.465 15.805 *L 0.00183 *D SDFFQX1
*I *814:SI I *C 26.825 18.415 *L 0.00172 *D SDFFQX1
*I *859:SI I *C 34.655 18.415 *L 0.00172 *D SDFFQX1
*I *844:D I *C 30.305 23.635 *L 0.00183 *D SDFFQX1
*I *921:Y O *C 30.2225 21.315 *L 0 *D CLKINVX1
*I *829:SI I *C 27.985 26.245 *L 0.00172 *D SDFFQX1

*CAP
1 *643:1 2.11568e-05
2 *643:2 2.11568e-05
3 *643:3 0.000256424
4 *643:4 0.000256424
5 *643:5 2.11568e-05
6 *643:6 0.000211568
7 *643:7 0.000190412
8 *643:9 0.000589774
9 *643:10 2.56424e-05
10 *643:11 0.00097441
11 *643:12 0.000190412
12 *643:14 0.00043592
13 *643:15 0.000571235
14 *643:18 0.000232725
15 *643:19 2.56424e-05
16 *643:20 0.000380823
17 *643:22 0.000232725
18 *643:23 0.000190412
19 *643:24 2.56424e-05
20 *643:25 2.56424e-05
21 *643:26 0.000190412
22 *643:27 2.56424e-05
23 *643:28 7.69271e-05
24 *643:31 0.00033851
25 *643:32 5.12847e-05
26 *643:34 0.000550078
27 *643:35 4.23137e-05
28 *643:36 0.000211568
29 *643:37 7.69271e-05
30 *643:38 4.23137e-05
31 *643:39 0.000358993
32 *643:40 7.69271e-05
33 *643:42 2.56424e-05
34 *643:43 0.000333351
35 *643:45 2.11568e-05
36 *643:46 2.11568e-05
37 *643:48 6.34705e-05
38 *643:49 2.11568e-05
39 *643:50 4.23137e-05
40 *643:51 0.000333351
41 *643:53 5.12847e-05
42 *643:54 0.000333351
43 *643:55 5.12847e-05
44 *643:56 4.23137e-05
45 *643:57 0.000126941
46 *643:58 4.23137e-05
47 *643:59 0.000302032
48 *643:61 0.000412057
49 *643:62 5.83637e-06
50 *643:63 0.000242802
51 *643:66 0.000228868
52 *643:67 0.000228868
53 *643:68 5.03749e-05
54 *643:69 5.03749e-05

*RES
1 *643:69 *829:SI 1.4
2 *643:68 *643:69 0.248575
3 *643:67 *643:68 1.4
4 *643:66 *643:67 0.99431
5 *643:63 *643:66 1.4
6 *643:62 *921:Y 1.4
7 *643:61 *844:D 1.4
8 *643:61 *643:63 1.36717
9 *643:59 *643:62 0.0342864
10 *643:59 *643:61 0.994305
11 *643:58 *859:SI 1.4
12 *643:57 *643:59 0.745729
13 *643:56 *643:58 0.248576
14 *643:55 *643:57 1.4
15 *643:54 *643:56 1.4
16 *643:53 *643:55 0.248565
17 *643:51 *643:54 1.61567
18 *643:50 *643:53 1.4
19 *643:49 *814:SI 1.4
20 *643:48 *643:51 1.4
21 *643:48 *643:50 0.248576
22 *643:46 *643:49 0.124288
23 *643:45 *643:48 0.124288
24 *643:44 *724:D 1.4
25 *643:43 *643:46 1.4
26 *643:42 *643:45 1.4
27 *643:40 *643:44 1.4
28 *643:39 *643:43 1.61567
29 *643:39 *643:42 0.124283
30 *643:38 *784:SI 1.4
31 *643:37 *643:40 0.372848
32 *643:36 *643:39 1.4
33 *643:35 *643:38 0.248576
34 *643:34 *643:37 1.4
35 *643:34 *643:36 1.24288
36 *643:32 *643:35 1.4
37 *643:31 *643:34 1.98861
38 *643:30 *739:SI 1.4
39 *643:28 *643:32 0.248565
40 *643:28 *643:31 1.4
41 *643:27 *643:30 1.4
42 *643:26 *799:SI 1.4
43 *643:25 *643:28 0.124283
44 *643:24 *643:27 0.124283
45 *643:23 *643:26 1.11859
46 *643:22 *643:25 1.4
47 *643:20 *643:24 1.4
48 *643:19 *643:23 1.4
49 *643:18 *643:22 1.36717
50 *643:15 *874:D 1.4
51 *643:15 *643:20 2.23719
52 *643:14 *643:19 0.124283
53 *643:14 *643:18 1.4
54 *643:13 *889:SI 1.4
55 *643:12 *904:D 1.4
56 *643:12 *643:15 1.11859
57 *643:11 *643:14 1.98852
58 *643:11 *643:13 1.4
59 *643:10 *643:12 1.4
60 *643:9 *643:11 2.73422
61 *643:9 *643:10 0.124283
62 *643:7 *643:9 1.4
63 *643:6 *754:SI 1.4
64 *643:6 *643:7 1.11859
65 *643:5 *643:6 0.124288
66 *643:4 *643:5 1.4
67 *643:3 *643:4 1.24283
68 *643:2 *643:3 1.4
69 *643:1 *643:2 0.124288
70 *769:SI *643:1 1.4
*END

*D_NET *644 0.0133639

*CONN
*I *750:SI I *C 39.875 91.495 *L 0.00172 *D SDFFQX1
*I *810:SI I *C 37.845 94.105 *L 0.00169 *D SDFFQXL
*I *825:SI I *C 40.165 96.715 *L 0.00169 *D SDFFQXL
*I *765:SI I *C 38.135 96.715 *L 0.00172 *D SDFFQX1
*I *735:D I *C 36.685 83.665 *L 0.00183 *D SDFFQX1
*I *840:SI I *C 45.965 83.665 *L 0.00169 *D SDFFQXL
*I *885:D I *C 50.025 83.665 *L 0.00181 *D SDFFQXL
*I *870:SI I *C 55.245 86.275 *L 0.00169 *D SDFFQXL
*I *922:Y O *C 54.7475 75.545 *L 0 *D CLKINVX1
*I *780:SI I *C 57.565 96.715 *L 0.00172 *D SDFFQX1
*I *915:D I *C 60.465 75.835 *L 0.00181 *D SDFFQXL
*I *795:SI I *C 58.725 91.495 *L 0.00172 *D SDFFQX1
*I *900:SI I *C 56.405 78.445 *L 0.00169 *D SDFFQXL
*I *855:D I *C 59.015 81.055 *L 0.00181 *D SDFFQXL

*CAP
1 *644:2 2.53809e-05
2 *644:3 2.53809e-05
3 *644:4 0.000164542
4 *644:5 0.000164542
5 *644:6 0.000101524
6 *644:7 0.000203047
7 *644:8 0.000205677
8 *644:9 0.00027919
9 *644:10 0.000205677
10 *644:11 2.05677e-05
11 *644:12 0.000177666
12 *644:13 0.000177666
13 *644:14 2.05677e-05
14 *644:15 0.000719869
15 *644:16 0.000101524
16 *644:17 7.61427e-05
17 *644:19 0.000719869
18 *644:22 7.61427e-05
19 *644:25 0.000888332
20 *644:26 0.00116752
21 *644:28 0.00077679
22 *644:31 0.000445784
23 *644:34 2.43264e-05
24 *644:35 0.000607238
25 *644:37 0.000184234
26 *644:38 0.000607238
27 *644:39 0.000184234
28 *644:40 0.000493148
29 *644:41 0.000194611
30 *644:43 0.000465751
31 *644:44 2.73971e-05
32 *644:45 0.000194611
33 *644:46 2.40564e-05
34 *644:47 7.05101e-06
35 *644:48 0.000368467
36 *644:49 0.000192451
37 *644:50 7.05101e-06
38 *644:51 0.000736935
39 *644:52 0.000168395
40 *644:53 5.47942e-05
41 *644:55 0.000368467
42 *644:56 9.73057e-05
43 *644:57 0.000356162
44 *644:58 5.47942e-05
45 *644:60 9.73057e-05
46 *644:61 2.73971e-05
47 *644:62 0.000328765
48 *644:65 0.000230554
49 *644:66 4.63198e-05
50 *644:69 0.000230554
51 *644:70 4.63198e-05
52 *644:71 9.73057e-05
53 *644:73 9.73057e-05

*RES
1 *644:74 *855:D 1.4
2 *644:73 *644:74 1.4
3 *644:71 *644:73 0.497155
4 *644:70 *900:SI 1.4
5 *644:69 *644:71 1.4
6 *644:66 *644:70 0.248577
7 *644:65 *644:69 1.36717
8 *644:64 *795:SI 1.4
9 *644:63 *915:D 1.4
10 *644:62 *644:66 1.4
11 *644:61 *644:65 1.4
12 *644:60 *644:64 1.4
13 *644:58 *644:63 1.4
14 *644:57 *644:62 1.49146
15 *644:57 *644:61 0.124289
16 *644:56 *644:60 0.497155
17 *644:55 *780:SI 1.4
18 *644:53 *644:58 0.248577
19 *644:52 *644:57 1.4
20 *644:51 *644:56 1.4
21 *644:51 *644:55 2.23718
22 *644:50 *922:Y 1.4
23 *644:49 *644:53 1.4
24 *644:49 *644:52 0.870021
25 *644:48 *644:51 2.23718
26 *644:47 *644:50 0.0364295
27 *644:46 *644:49 0.124289
28 *644:45 *644:48 1.4
29 *644:44 *644:47 1.4
30 *644:43 *644:46 1.4
31 *644:41 *644:45 0.99431
32 *644:40 *644:44 0.124289
33 *644:40 *644:43 2.11291
34 *644:39 *870:SI 1.4
35 *644:39 *644:41 1.4
36 *644:38 *644:40 1.4
37 *644:37 *644:39 1.11859
38 *644:35 *644:38 3.48007
39 *644:34 *644:37 1.4
40 *644:32 *885:D 1.4
41 *644:31 *644:35 1.4
42 *644:31 *644:34 0.124289
43 *644:29 *840:SI 1.4
44 *644:28 *644:32 1.4
45 *644:28 *644:31 2.11286
46 *644:27 *735:D 1.4
47 *644:26 *644:29 1.4
48 *644:26 *644:28 1.73996
49 *644:25 *644:27 1.4
50 *644:25 *644:26 3.97705
51 *644:22 *644:25 0.372849
52 *644:21 *765:SI 1.4
53 *644:20 *825:SI 1.4
54 *644:19 *644:22 1.4
55 *644:17 *644:21 1.4
56 *644:16 *644:20 1.4
57 *644:15 *644:19 4.34989
58 *644:14 *810:SI 1.4
59 *644:13 *644:17 0.372849
60 *644:13 *644:16 0.497132
61 *644:12 *644:15 1.4
62 *644:11 *644:14 0.124283
63 *644:10 *644:13 1.4
64 *644:9 *644:12 0.86998
65 *644:9 *644:11 1.4
66 *644:8 *644:10 1.24283
67 *644:7 *644:9 0.497132
68 *644:7 *644:8 1.4
69 *644:6 *644:7 0.497132
70 *644:5 *644:6 1.4
71 *644:4 *644:5 0.994261
72 *644:3 *644:4 1.4
73 *644:2 *644:3 0.124283
74 *644:1 *644:2 1.4
75 *750:SI *644:1 1.4
*END

*D_NET *645 0.00881558

*CONN
*I *1262:B0 I *C 39.585 41.905 *L 0.0028 *D OAI211X1
*I *1279:B0 I *C 39.585 31.465 *L 0.0028 *D OAI211X1
*I *1298:B0 I *C 29.725 41.905 *L 0.0028 *D OAI211X1
*I *1193:A I *C 27.115 39.295 *L 0.00157 *D NAND2XL
*I *1330:A I *C 26.825 36.685 *L 0.00157 *D NAND2XL
*I *1321:A0 I *C 25.955 33.785 *L 0.00155 *D AO21X1
*I *1355:B I *C 14.645 31.465 *L 0.00167 *D NAND2XL
*I *1337:Y O *C 24.0075 28.565 *L 0 *D CLKINVX1

*CAP
1 *645:1 5.03749e-05
2 *645:2 0.000906748
3 *645:3 0.00094408
4 *645:4 0.000856373
5 *645:5 0.000972688
6 *645:7 0.000176312
7 *645:8 2.86085e-05
8 *645:9 0.000176312
9 *645:10 5.03749e-05
10 *645:11 0.000286085
11 *645:12 5.03749e-05
12 *645:13 0.000286085
13 *645:15 0.000226687
14 *645:17 0.000428186
15 *645:18 2.86085e-05
16 *645:19 0.000201499
17 *645:20 2.86085e-05
18 *645:21 0.000111979
19 *645:23 0.000230475
20 *645:25 4.68787e-05
21 *645:26 0.000118496
22 *645:27 4.68787e-05
23 *645:28 0.000234394
24 *645:30 0.000234394
25 *645:31 4.73985e-05
26 *645:32 0.000805774
27 *645:33 0.000234394
28 *645:34 0.000758375
29 *645:35 0.000241264
30 *645:37 6.87015e-06

*RES
1 *645:37 *1337:Y 1.4
2 *645:36 *1355:B 1.4
3 *645:35 *645:37 0.0364277
4 *645:34 *645:36 1.4
5 *645:33 *645:35 1.24283
6 *645:32 *645:34 3.97724
7 *645:32 *645:33 1.4
8 *645:31 *645:32 0.248577
9 *645:30 *645:31 1.4
10 *645:28 *645:30 1.24283
11 *645:27 *1321:A0 1.4
12 *645:26 *645:28 1.4
13 *645:25 *645:27 0.248565
14 *645:23 *645:26 0.621444
15 *645:23 *645:25 1.4
16 *645:22 *1330:A 1.4
17 *645:21 *645:23 0.497155
18 *645:20 *645:22 1.4
19 *645:19 *645:21 1.4
20 *645:18 *645:20 0.124289
21 *645:17 *645:19 0.994302
22 *645:17 *645:18 1.4
23 *645:15 *645:17 1.11859
24 *645:15 *1193:A 1.4
25 *645:13 *645:15 1.4
26 *645:12 *1298:B0 1.4
27 *645:11 *645:13 1.24289
28 *645:10 *645:12 0.248575
29 *645:9 *645:11 1.4
30 *645:8 *645:10 1.4
31 *645:7 *645:9 0.870014
32 *645:5 *645:8 0.124289
33 *645:5 *645:7 1.4
34 *645:4 *1279:B0 1.4
35 *645:3 *645:5 4.10153
36 *645:2 *645:4 4.22578
37 *645:2 *645:3 1.4
38 *645:1 *645:2 0.248575
39 *1262:B0 *645:1 1.4
*END

*D_NET *646 0.00247459

*CONN
*I *1336:B I *C 30.015 33.495 *L 0.00285 *D NAND3X1
*I *1335:C I *C 30.015 31.465 *L 0.00175 *D NAND4BBXL
*I *1128:A I *C 24.215 31.465 *L 0.00157 *D NAND2XL
*I *1202:Y O *C 22.475 34.365 *L 0 *D NOR2XL

*CAP
1 *646:1 0.000176312
2 *646:2 0.000176312
3 *646:4 2.86085e-05
4 *646:5 2.86085e-05
5 *646:6 5.03749e-05
6 *646:7 5.03749e-05
7 *646:8 0.000511651
8 *646:9 0.000630147
9 *646:10 4.68787e-05
10 *646:11 0.000118496
11 *646:12 4.68787e-05
12 *646:13 0.000281272
13 *646:15 0.000281272
14 *646:16 2.36992e-05
15 *646:17 2.36992e-05

*RES
1 *646:18 *1202:Y 1.4
2 *646:17 *646:18 1.4
3 *646:16 *646:17 0.124289
4 *646:15 *646:16 1.4
5 *646:13 *646:15 1.49139
6 *646:12 *1128:A 1.4
7 *646:11 *646:13 1.4
8 *646:10 *646:12 0.248565
9 *646:9 *646:11 0.621444
10 *646:9 *646:10 1.4
11 *646:8 *646:9 2.36149
12 *646:7 *646:8 1.4
13 *646:6 *646:7 0.248575
14 *646:5 *646:6 1.4
15 *646:4 *646:5 0.124289
16 *646:2 *646:4 1.4
17 *646:2 *1335:C 1.4
18 *646:1 *646:2 0.870014
19 *1336:B *646:1 1.4
*END

*D_NET *647 0.0071422

*CONN
*I *1278:A0 I *C 35.235 70.615 *L 0.00164 *D OAI21XL
*I *1270:A0 I *C 41.035 75.835 *L 0.00164 *D OAI21XL
*I *1277:A0 I *C 49.735 75.835 *L 0.00164 *D OAI21XL
*I *922:A I *C 54.375 75.545 *L 0.00273 *D CLKINVX1
*I *957:Y O *C 64.825 73.515 *L 0 *D NOR2BX1

*CAP
1 *647:2 0.00056541
2 *647:3 0.00056541
3 *647:4 0.000453372
4 *647:5 0.000453372
5 *647:6 0.000848115
6 *647:8 0.00129389
7 *647:9 0.00145947
8 *647:11 0.00101369
9 *647:12 2.40564e-05
10 *647:14 0.000192451
11 *647:15 2.40564e-05
12 *647:16 0.000192451
13 *647:18 2.73971e-05
14 *647:19 2.73971e-05
15 *647:20 8.29531e-07
16 *647:21 8.29531e-07

*RES
1 *647:21 *957:Y 1.4
2 *647:20 *647:21 0.00428582
3 *647:19 *647:20 1.4
4 *647:18 *647:19 0.124289
5 *647:16 *647:18 1.4
6 *647:15 *922:A 1.4
7 *647:14 *647:16 0.99431
8 *647:12 *647:15 0.124289
9 *647:11 *647:14 1.4
10 *647:10 *1277:A0 1.4
11 *647:9 *647:12 1.4
12 *647:9 *647:11 4.59868
13 *647:8 *647:10 1.4
14 *647:8 *647:9 1.98857
15 *647:6 *647:8 3.72849
16 *647:5 *1270:A0 1.4
17 *647:5 *647:6 1.4
18 *647:4 *647:5 2.2372
19 *647:3 *647:4 1.4
20 *647:2 *647:3 2.48566
21 *647:1 *647:2 1.4
22 *1278:A0 *647:1 1.4
*END

*D_NET *648 0.00224236

*CONN
*I *1190:A I *C 25.085 42.195 *L 0.00273 *D CLKINVX1
*I *1318:B I *C 25.085 39.295 *L 0.00167 *D NAND2XL
*I *944:A I *C 25.665 36.975 *L 0.00162 *D NOR2XL
*I *1193:Y O *C 26.535 38.715 *L 0 *D NAND2XL
*I *1326:A I *C 29.145 36.975 *L 0.00162 *D NOR2XL
*I *1332:A I *C 30.305 36.975 *L 0.00162 *D NOR2XL

*CAP
1 *648:1 0.000234394
2 *648:2 0.000234394
3 *648:3 2.36992e-05
4 *648:5 2.36992e-05
5 *648:6 0.000140636
6 *648:7 0.000140636
7 *648:8 2.36992e-05
8 *648:9 0.000102161
9 *648:10 0.000335938
10 *648:11 4.68787e-05
11 *648:12 0.00010075
12 *648:13 0.00037191
13 *648:14 4.68787e-05
14 *648:15 0.00010075
15 *648:16 0.000114434
16 *648:17 5.03749e-05
17 *648:20 5.03749e-05
18 *648:21 5.03749e-05
19 *648:22 5.03749e-05

*RES
1 *648:22 *1332:A 1.4
2 *648:21 *1326:A 1.4
3 *648:20 *648:22 0.248575
4 *648:17 *648:21 0.248575
5 *648:16 *648:20 1.4
6 *648:15 *1193:Y 1.4
7 *648:14 *944:A 1.4
8 *648:13 *648:17 1.4
9 *648:13 *648:16 0.497155
10 *648:12 *648:15 0.497151
11 *648:11 *648:14 0.248565
12 *648:10 *648:13 1.1186
13 *648:10 *648:12 1.4
14 *648:9 *648:11 1.4
15 *648:9 *648:10 0.372866
16 *648:8 *648:9 0.124289
17 *648:7 *648:8 1.4
18 *648:6 *648:7 0.745696
19 *648:5 *648:6 1.4
20 *648:3 *648:5 0.124289
21 *648:2 *1318:B 1.4
22 *648:2 *648:3 1.4
23 *648:1 *648:2 1.24283
24 *1190:A *648:1 1.4
*END

*D_NET *649 0.00609852

*CONN
*I *940:B I *C 16.095 39.2675 *L 0.00178 *D AND3X1
*I *949:A I *C 12.905 39.295 *L 0.00178 *D AND3X1
*I *947:A I *C 22.185 36.685 *L 0.00178 *D AND3X1
*I *1217:AN I *C 17.545 34.075 *L 0.00174 *D NOR2BX1
*I *1194:Y O *C 17.545 31.175 *L 0 *D NOR2XL
*I *1327:A I *C 26.825 31.465 *L 0.00157 *D NAND2XL
*I *1321:B0 I *C 26.825 33.785 *L 0.00175 *D AO21X1
*I *1322:AN I *C 27.695 39.005 *L 0.00178 *D NAND2BX1

*CAP
1 *649:1 2.02063e-06
2 *649:2 2.02063e-06
3 *649:3 0.000426586
4 *649:4 0.000165895
5 *649:5 0.000260692
6 *649:6 0.000234394
7 *649:8 0.000234394
8 *649:10 0.000379188
9 *649:11 0.000331789
10 *649:12 4.73985e-05
11 *649:13 2.34394e-05
12 *649:14 0.000187515
13 *649:15 2.34394e-05
14 *649:16 0.00035159
15 *649:19 0.000234394
16 *649:20 0.000770648
17 *649:21 7.03181e-05
18 *649:22 0.000770648
19 *649:24 0.000151125
20 *649:25 0.000151125
21 *649:26 5.03749e-05
22 *649:27 5.03749e-05
23 *649:28 8.58254e-05
24 *649:31 8.58254e-05
25 *649:32 0.000503749
26 *649:33 0.000503749

*RES
1 *649:33 *1322:AN 1.4
2 *649:32 *649:33 2.48575
3 *649:31 *649:32 1.4
4 *649:28 *649:31 0.372866
5 *649:27 *1321:B0 1.4
6 *649:26 *1327:A 1.4
7 *649:25 *649:28 1.4
8 *649:25 *649:27 0.248575
9 *649:24 *649:26 0.248575
10 *649:24 *649:25 0.497151
11 *649:22 *649:24 1.4
12 *649:21 *1194:Y 1.4
13 *649:20 *649:22 3.97724
14 *649:19 *649:21 0.372848
15 *649:19 *649:20 1.4
16 *649:16 *649:19 0.869979
17 *649:16 *1217:AN 1.4
18 *649:15 *947:A 1.4
19 *649:14 *649:16 0.994261
20 *649:13 *649:15 0.124283
21 *649:12 *649:14 1.4
22 *649:11 *649:13 1.4
23 *649:10 *649:12 0.248577
24 *649:10 *649:11 1.74004
25 *649:8 *649:10 1.4
26 *649:7 *949:A 1.4
27 *649:6 *649:8 1.24283
28 *649:5 *649:7 1.4
29 *649:4 *649:6 1.4
30 *649:3 *649:5 1.36718
31 *649:3 *649:4 0.870021
32 *649:2 *649:3 1.4
33 *649:1 *649:2 0.010714
34 *940:B *649:1 1.4
*END

*D_NET *650 0.0132249

*CONN
*I *738:D I *C 82.505 83.665 *L 0.00183 *D SDFFQX1
*I *873:SI I *C 94.685 83.665 *L 0.00172 *D SDFFQX1
*I *753:SI I *C 99.615 86.275 *L 0.00172 *D SDFFQX1
*I *768:SI I *C 98.165 96.715 *L 0.00172 *D SDFFQX1
*I *888:D I *C 94.105 94.105 *L 0.00181 *D SDFFQXL
*I *813:SI I *C 87.435 94.105 *L 0.00172 *D SDFFQX1
*I *828:SI I *C 83.955 96.715 *L 0.00172 *D SDFFQX1
*I *783:SI I *C 75.255 96.715 *L 0.00172 *D SDFFQX1
*I *918:D I *C 70.035 96.715 *L 0.00181 *D SDFFQXL
*I *798:SI I *C 71.775 94.105 *L 0.00172 *D SDFFQX1
*I *903:SI I *C 67.425 94.105 *L 0.00172 *D SDFFQX1
*I *843:SI I *C 70.035 83.665 *L 0.00172 *D SDFFQX1
*I *926:Y O *C 69.165 80.475 *L 0 *D OAI21X1
*I *858:D I *C 68.585 78.445 *L 0.00181 *D SDFFQXL

*CAP
1 *650:2 0.000891584
2 *650:3 0.00125246
3 *650:4 0.000360879
4 *650:6 0.000177176
5 *650:8 0.000708703
6 *650:9 0.000531527
7 *650:11 0.000106141
8 *650:12 0.000403336
9 *650:13 0.000177176
10 *650:14 0.000785443
11 *650:15 0.000177176
12 *650:17 0.000488248
13 *650:20 0.000196862
14 *650:21 0.000196862
15 *650:23 0.000254738
16 *650:24 0.000924115
17 *650:25 1.96862e-05
18 *650:26 0.00100995
19 *650:27 1.96862e-05
20 *650:28 2.04704e-05
21 *650:29 0.00034057
22 *650:31 2.04704e-05
23 *650:32 2.04704e-05
24 *650:34 0.000122822
25 *650:35 9.73057e-05
26 *650:36 0.000102352
27 *650:37 9.73057e-05
28 *650:38 4.86529e-05
29 *650:40 4.86529e-05
30 *650:42 8.18817e-05
31 *650:43 8.18817e-05
32 *650:45 9.73057e-05
33 *650:46 9.73057e-05
34 *650:47 2.04704e-05
35 *650:48 0.000736935
36 *650:49 0.000267591
37 *650:50 0.00096211
38 *650:51 0.000267591
39 *650:52 4.86529e-05
40 *650:53 0.000245645
41 *650:54 2.04704e-05
42 *650:55 4.86529e-05
43 *650:56 0.000121632
44 *650:57 2.04704e-05
45 *650:59 0.000170285
46 *650:62 2.04704e-05
47 *650:63 4.86529e-05
48 *650:64 2.04704e-05
49 *650:65 0.000122823
50 *650:67 0.000122823

*RES
1 *650:67 *858:D 1.4
2 *650:65 *650:67 0.745727
3 *650:64 *926:Y 1.4
4 *650:63 *650:65 1.4
5 *650:62 *650:64 0.124288
6 *650:59 *650:63 0.248578
7 *650:59 *650:62 1.4
8 *650:58 *843:SI 1.4
9 *650:57 *903:SI 1.4
10 *650:56 *650:59 0.621444
11 *650:55 *650:58 1.4
12 *650:54 *650:57 0.124288
13 *650:53 *650:56 1.4
14 *650:52 *650:55 0.248578
15 *650:51 *650:54 1.4
16 *650:50 *650:53 1.49145
17 *650:50 *650:52 1.4
18 *650:49 *650:51 1.36718
19 *650:48 *650:50 4.35007
20 *650:48 *650:49 1.4
21 *650:47 *650:48 0.124288
22 *650:46 *650:47 1.4
23 *650:45 *650:46 0.497155
24 *650:43 *650:45 1.4
25 *650:43 *798:SI 1.4
26 *650:42 *650:43 0.497151
27 *650:40 *650:42 1.4
28 *650:39 *918:D 1.4
29 *650:38 *650:40 0.248578
30 *650:37 *650:39 1.4
31 *650:36 *650:38 1.4
32 *650:35 *650:37 0.497155
33 *650:34 *650:36 0.621439
34 *650:34 *650:35 1.4
35 *650:32 *650:34 0.124288
36 *650:31 *783:SI 1.4
37 *650:29 *650:32 1.4
38 *650:28 *650:31 0.124288
39 *650:27 *828:SI 1.4
40 *650:26 *650:29 1.74004
41 *650:26 *650:28 1.4
42 *650:25 *650:27 0.124283
43 *650:24 *650:26 3.72866
44 *650:24 *650:25 1.4
45 *650:23 *650:24 1.49146
46 *650:21 *650:23 1.4
47 *650:20 *813:SI 1.4
48 *650:20 *650:21 1.24283
49 *650:17 *650:20 1.4
50 *650:16 *888:D 1.4
51 *650:15 *768:SI 1.4
52 *650:14 *650:17 2.85864
53 *650:14 *650:16 1.4
54 *650:13 *650:15 1.11854
55 *650:12 *650:14 1.74004
56 *650:12 *650:13 1.4
57 *650:11 *650:12 0.621444
58 *650:9 *650:11 1.4
59 *650:8 *753:SI 1.4
60 *650:8 *650:9 3.35563
61 *650:6 *650:8 1.11854
62 *650:5 *873:SI 1.4
63 *650:4 *650:6 1.4
64 *650:3 *650:5 1.4
65 *650:3 *650:4 2.11291
66 *650:2 *650:3 5.22013
67 *650:1 *650:2 1.4
68 *738:D *650:1 1.4
*END

*D_NET *651 0.0111034

*CONN
*I *1335:BN I *C 31.465 31.755 *L 0.00157 *D NAND4BBXL
*I *1334:B I *C 30.885 28.565 *L 0.00165 *D OR2X1
*I *956:Y O *C 79.315 25.955 *L 0 *D NAND2X1
*I *923:A I *C 83.375 26.535 *L 0.00273 *D CLKINVX1

*CAP
1 *651:2 2.86085e-05
2 *651:3 2.86085e-05
3 *651:4 0.000277062
4 *651:5 0.000402999
5 *651:6 2.86085e-05
6 *651:7 0.000125937
7 *651:8 2.86085e-05
8 *651:9 0.00443715
9 *651:11 0.00443715
10 *651:13 2.40074e-05
11 *651:14 2.40074e-05
12 *651:15 0.000207732
13 *651:16 0.00054118
14 *651:17 0.000333447
15 *651:18 6.68939e-05
16 *651:19 2.22686e-05
17 *651:20 6.68939e-05
18 *651:21 2.22686e-05

*RES
1 *651:21 *923:A 1.4
2 *651:20 *956:Y 1.4
3 *651:19 *651:21 0.124288
4 *651:18 *651:20 0.372864
5 *651:17 *651:19 1.4
6 *651:16 *651:18 1.4
7 *651:16 *651:17 1.73996
8 *651:15 *651:16 0.994286
9 *651:14 *651:15 1.4
10 *651:13 *651:14 0.124283
11 *651:11 *651:13 1.4
12 *651:10 *1334:B 1.4
13 *651:9 *651:11 19.6376
14 *651:8 *651:10 1.4
15 *651:7 *651:9 1.4
16 *651:6 *651:8 0.124289
17 *651:5 *651:7 0.621439
18 *651:5 *651:6 1.4
19 *651:4 *651:5 1.36717
20 *651:3 *651:4 1.4
21 *651:2 *651:3 0.124289
22 *651:1 *651:2 1.4
23 *1335:BN *651:1 1.4
*END

*D_NET *652 0.0179644

*CONN
*I *1285:B1 I *C 93.525 34.075 *L 0.00171 *D AO22XL
*I *839:SI I *C 89.465 36.685 *L 0.00169 *D SDFFQXL
*I *884:D I *C 91.495 39.295 *L 0.00181 *D SDFFQXL
*I *1295:B1 I *C 99.615 39.295 *L 0.00171 *D AO22XL
*I *749:SI I *C 93.235 44.515 *L 0.00172 *D SDFFQX1
*I *764:SI I *C 101.065 41.905 *L 0.00172 *D SDFFQX1
*I *869:SI I *C 101.355 34.075 *L 0.00169 *D SDFFQXL
*I *809:SI I *C 85.405 44.515 *L 0.00169 *D SDFFQXL
*I *734:D I *C 80.185 41.905 *L 0.00183 *D SDFFQX1
*I *854:D I *C 76.705 36.685 *L 0.00181 *D SDFFQXL
*I *1294:B1 I *C 75.545 41.905 *L 0.00171 *D AO22XL
*I *899:SI I *C 70.905 36.685 *L 0.00169 *D SDFFQXL
*I *794:SI I *C 73.515 41.905 *L 0.00172 *D SDFFQX1
*I *914:D I *C 72.645 44.515 *L 0.00181 *D SDFFQXL
*I *779:SI I *C 74.095 49.735 *L 0.00172 *D SDFFQX1
*I *824:SI I *C 75.835 52.345 *L 0.00169 *D SDFFQXL
*I *927:Y O *C 67.425 68.585 *L 0 *D OAI21X1

*CAP
1 *652:1 0.000155881
2 *652:2 0.000155881
3 *652:3 0.000119088
4 *652:4 0.000119088
5 *652:5 4.45373e-05
6 *652:6 0.000178149
7 *652:7 0.000200418
8 *652:8 0.000214359
9 *652:9 0.000190541
10 *652:10 6.68059e-05
11 *652:11 0.000214359
12 *652:12 0.000190541
13 *652:13 4.76353e-05
14 *652:15 4.45373e-05
15 *652:16 4.76353e-05
16 *652:18 0.00048991
17 *652:20 0.000445373
18 *652:21 0.000428718
19 *652:23 9.52707e-05
20 *652:24 0.000523989
21 *652:25 0.00071453
22 *652:26 9.52707e-05
23 *652:27 2.22686e-05
24 *652:28 2.22686e-05
25 *652:29 0.000619259
26 *652:30 0.000601253
27 *652:31 2.22686e-05
28 *652:32 2.22686e-05
29 *652:33 2.22686e-05
30 *652:34 0.000222686
31 *652:35 0.000378567
32 *652:38 0.000222686
33 *652:39 2.38177e-05
34 *652:40 4.76353e-05
35 *652:41 2.38177e-05
36 *652:42 0.000200418
37 *652:43 2.38177e-05
38 *652:44 4.76353e-05
39 *652:45 2.38177e-05
40 *652:46 0.000452536
41 *652:50 0.000759359
42 *652:55 0.000417375
43 *652:57 0.000432134
44 *652:58 0.000110551
45 *652:59 0.000456141
46 *652:60 2.40074e-05
47 *652:62 2.40074e-05
48 *652:64 2.40074e-05
49 *652:65 0.000552757
50 *652:66 0.000193465
51 *652:67 0.000552757
52 *652:68 0.000193465
53 *652:69 2.40074e-05
54 *652:70 2.40074e-05
55 *652:71 2.40074e-05
56 *652:72 0.000240074
57 *652:74 0.000648201
58 *652:76 0.000624194
59 *652:77 8.29136e-05
60 *652:78 0.000216091
61 *652:79 5.52757e-05
62 *652:80 8.29136e-05
63 *652:81 2.40319e-05
64 *652:82 0.000580395
65 *652:83 5.52757e-05
66 *652:85 0.000219177
67 *652:86 0.000580395
68 *652:89 0.000219177
69 *652:90 0.00137119
70 *652:93 0.00137119

*RES
1 *652:93 *927:Y 1.4
2 *652:92 *824:SI 1.4
3 *652:90 *652:93 7.08446
4 *652:89 *652:92 1.4
5 *652:87 *779:SI 1.4
6 *652:86 *652:90 1.4
7 *652:85 *652:89 0.99431
8 *652:84 *914:D 1.4
9 *652:83 *652:87 1.4
10 *652:82 *652:86 2.61005
11 *652:81 *652:85 1.4
12 *652:80 *652:84 1.4
13 *652:79 *652:83 0.248576
14 *652:78 *652:82 1.4
15 *652:78 *652:81 0.124286
16 *652:77 *652:80 0.372865
17 *652:76 *652:79 1.4
18 *652:76 *652:78 0.994261
19 *652:74 *652:77 1.4
20 *652:74 *652:76 2.23709
21 *652:72 *794:SI 1.4
22 *652:72 *652:74 1.11854
23 *652:71 *899:SI 1.4
24 *652:70 *652:72 0.124283
25 *652:69 *652:71 0.124283
26 *652:68 *652:70 1.4
27 *652:67 *652:69 1.4
28 *652:66 *652:68 0.870018
29 *652:65 *652:67 2.48576
30 *652:64 *652:66 1.4
31 *652:62 *652:65 1.4
32 *652:60 *652:64 0.124283
33 *652:60 *1294:B1 1.4
34 *652:59 *652:62 0.124283
35 *652:59 *854:D 1.4
36 *652:58 *652:60 1.4
37 *652:57 *652:59 2.23709
38 *652:55 *652:58 0.497153
39 *652:55 *652:57 1.4
40 *652:54 *734:D 1.4
41 *652:50 *652:55 1.49142
42 *652:50 *652:54 1.4
43 *652:49 *809:SI 1.4
44 *652:48 *869:SI 1.4
45 *652:47 *764:SI 1.4
46 *652:46 *652:50 2.36137
47 *652:45 *652:49 1.4
48 *652:44 *652:48 1.4
49 *652:43 *652:47 1.4
50 *652:42 *652:46 1.4
51 *652:41 *652:45 0.124283
52 *652:40 *652:44 0.248565
53 *652:39 *652:43 0.124283
54 *652:38 *652:42 1.11859
55 *652:38 *652:41 1.4
56 *652:35 *652:40 1.4
57 *652:34 *652:39 1.4
58 *652:33 *652:38 0.124288
59 *652:32 *749:SI 1.4
60 *652:31 *1295:B1 1.4
61 *652:30 *652:35 2.11289
62 *652:30 *652:34 1.24288
63 *652:29 *652:33 1.4
64 *652:28 *652:32 0.124288
65 *652:27 *652:31 0.124288
66 *652:26 *652:30 1.4
67 *652:25 *652:29 3.23135
68 *652:25 *652:28 1.4
69 *652:24 *652:27 1.4
70 *652:24 *652:26 0.497131
71 *652:23 *652:25 0.497131
72 *652:21 *652:24 2.23709
73 *652:20 *652:23 1.4
74 *652:19 *884:D 1.4
75 *652:18 *652:21 1.4
76 *652:18 *652:20 2.48576
77 *652:16 *652:19 1.4
78 *652:15 *652:18 0.248576
79 *652:14 *839:SI 1.4
80 *652:13 *652:16 0.248565
81 *652:12 *652:15 1.4
82 *652:11 *652:14 1.4
83 *652:10 *652:13 1.4
84 *652:9 *652:12 0.994261
85 *652:8 *652:11 1.11854
86 *652:7 *652:10 0.372863
87 *652:7 *652:9 1.4
88 *652:6 *652:8 1.4
89 *652:6 *652:7 0.745727
90 *652:5 *652:6 0.248576
91 *652:4 *652:5 1.4
92 *652:3 *652:4 0.621413
93 *652:2 *652:3 1.4
94 *652:1 *652:2 0.870015
95 *1285:B1 *652:1 1.4
*END

*D_NET *653 0.0191609

*CONN
*I *820:SI I *C 30.015 96.715 *L 0.00169 *D SDFFQXL
*I *760:SI I *C 21.895 96.715 *L 0.00172 *D SDFFQX1
*I *805:SI I *C 19.575 91.495 *L 0.00172 *D SDFFQX1
*I *775:SI I *C 14.065 96.715 *L 0.00172 *D SDFFQX1
*I *790:SI I *C 10.875 86.275 *L 0.00172 *D SDFFQX1
*I *835:SI I *C 20.445 81.055 *L 0.00172 *D SDFFQX1
*I *865:SI I *C 18.705 65.395 *L 0.00172 *D SDFFQX1
*I *880:D I *C 17.255 70.615 *L 0.00181 *D SDFFQXL
*I *910:D I *C 9.425 70.615 *L 0.00181 *D SDFFQXL
*I *1288:B1 I *C 27.405 62.785 *L 0.00171 *D AO22XL
*I *850:D I *C 13.485 68.005 *L 0.00181 *D SDFFQXL
*I *745:SI I *C 30.885 65.395 *L 0.00172 *D SDFFQX1
*I *895:SI I *C 10.875 65.395 *L 0.00172 *D SDFFQX1
*I *955:Y O *C 32.045 63.365 *L 0 *D OAI21X1
*I *1292:B1 I *C 35.815 62.785 *L 0.00171 *D AO22XL
*I *730:D I *C 27.695 68.005 *L 0.00183 *D SDFFQX1
*I *1282:B1 I *C 39.005 70.615 *L 0.00171 *D AO22XL

*CAP
1 *653:1 4.11354e-05
2 *653:2 4.11354e-05
3 *653:3 0.000641692
4 *653:4 0.000806684
5 *653:5 3.94288e-05
6 *653:6 0.000164993
7 *653:7 3.94288e-05
8 *653:8 3.94288e-05
9 *653:10 0.000394288
10 *653:11 0.000391858
11 *653:12 0.000709719
12 *653:13 0.000391858
13 *653:15 0.00035486
14 *653:17 8.24964e-05
15 *653:19 0.000618723
16 *653:20 0.00035486
17 *653:21 0.000536226
18 *653:22 0.00035486
19 *653:24 6.18723e-05
20 *653:26 0.000144369
21 *653:27 8.24964e-05
22 *653:28 0.000813413
23 *653:30 0.000813413
24 *653:32 4.41853e-05
25 *653:33 0.000154649
26 *653:34 0.000425293
27 *653:35 0.000574409
28 *653:36 0.000614313
29 *653:38 0.000596502
30 *653:40 0.000189019
31 *653:42 0.000212647
32 *653:43 0.000132556
33 *653:44 0.00069058
34 *653:45 0.000212647
35 *653:47 0.00102983
36 *653:48 0.000243019
37 *653:50 0.000339246
38 *653:51 2.51873e-05
39 *653:52 0.000176741
40 *653:53 6.6278e-05
41 *653:54 5.03747e-05
42 *653:55 2.51873e-05
43 *653:57 0.000212647
44 *653:58 0.000201499
45 *653:61 0.000212647
46 *653:62 0.000113082
47 *653:63 0.000453372
48 *653:64 4.41853e-05
49 *653:65 0.000480598
50 *653:66 0.000302248
51 *653:68 4.41853e-05
52 *653:69 0.000367516
53 *653:70 2.51873e-05
54 *653:71 0.000310975
55 *653:73 0.000730433
56 *653:74 2.51873e-05
57 *653:75 0.000310975
58 *653:77 0.000654871
59 *653:78 7.5562e-05
60 *653:80 7.5562e-05
61 *653:81 0.000310975
62 *653:83 7.5562e-05
63 *653:84 0.000310975
64 *653:86 5.03747e-05
65 *653:87 5.03747e-05

*RES
1 *653:87 *1282:B1 1.4
2 *653:86 *653:87 0.248578
3 *653:84 *653:86 1.4
4 *653:83 *730:D 1.4
5 *653:81 *653:84 1.36711
6 *653:80 *653:83 0.372866
7 *653:78 *1292:B1 1.4
8 *653:77 *653:81 1.4
9 *653:75 *653:80 1.4
10 *653:74 *955:Y 1.4
11 *653:73 *653:78 0.372866
12 *653:73 *653:77 3.23151
13 *653:72 *895:SI 1.4
14 *653:71 *653:75 1.36711
15 *653:70 *653:74 0.124289
16 *653:69 *653:73 1.4
17 *653:68 *653:72 1.4
18 *653:66 *653:71 1.4
19 *653:65 *653:70 1.4
20 *653:65 *653:69 1.61568
21 *653:64 *653:68 0.248577
22 *653:63 *745:SI 1.4
23 *653:63 *653:66 1.49146
24 *653:62 *653:65 0.497131
25 *653:61 *653:64 1.4
26 *653:58 *653:63 0.745732
27 *653:58 *653:62 1.4
28 *653:57 *653:61 1.11854
29 *653:56 *850:D 1.4
30 *653:55 *1288:B1 1.4
31 *653:54 *653:58 0.248578
32 *653:53 *653:57 1.4
33 *653:52 *653:56 1.4
34 *653:51 *653:55 0.124289
35 *653:50 *653:54 1.4
36 *653:48 *653:53 0.372866
37 *653:48 *653:52 0.99431
38 *653:47 *653:51 1.4
39 *653:47 *653:50 1.49139
40 *653:46 *910:D 1.4
41 *653:45 *653:48 1.4
42 *653:44 *653:47 3.72864
43 *653:43 *653:46 1.4
44 *653:42 *653:45 1.11854
45 *653:40 *653:44 1.4
46 *653:38 *653:43 0.745732
47 *653:38 *653:42 1.4
48 *653:37 *880:D 1.4
49 *653:36 *653:40 0.994261
50 *653:36 *865:SI 1.4
51 *653:35 *653:38 2.61006
52 *653:35 *653:37 1.4
53 *653:34 *653:36 2.23709
54 *653:33 *653:35 0.621444
55 *653:33 *653:34 1.4
56 *653:32 *653:33 0.248577
57 *653:30 *653:32 1.4
58 *653:29 *835:SI 1.4
59 *653:28 *653:30 4.47422
60 *653:27 *653:29 1.4
61 *653:26 *653:28 1.4
62 *653:26 *653:27 0.497132
63 *653:24 *653:26 0.372849
64 *653:23 *790:SI 1.4
65 *653:22 *653:24 1.4
66 *653:21 *653:23 1.4
67 *653:20 *653:22 2.23718
68 *653:19 *653:21 3.23136
69 *653:19 *653:20 1.4
70 *653:17 *653:19 0.497132
71 *653:16 *775:SI 1.4
72 *653:15 *653:17 1.4
73 *653:13 *653:16 1.4
74 *653:12 *653:15 2.23718
75 *653:12 *805:SI 1.4
76 *653:11 *653:13 2.36138
77 *653:10 *653:12 2.23718
78 *653:10 *653:11 1.4
79 *653:8 *653:10 0.248576
80 *653:7 *760:SI 1.4
81 *653:6 *653:8 1.4
82 *653:5 *653:7 0.248576
83 *653:4 *653:6 0.994265
84 *653:4 *653:5 1.4
85 *653:3 *653:4 3.47992
86 *653:2 *653:3 1.4
87 *653:1 *653:2 0.248565
88 *820:SI *653:1 1.4
*END

*D_NET *654 0.0165208

*CONN
*I *751:SI I *C 93.525 60.175 *L 0.00172 *D SDFFQX1
*I *886:D I *C 92.945 57.565 *L 0.00181 *D SDFFQXL
*I *1296:B1 I *C 100.485 54.955 *L 0.00171 *D AO22XL
*I *871:SI I *C 101.355 52.345 *L 0.00169 *D SDFFQXL
*I *766:SI I *C 101.355 49.735 *L 0.00172 *D SDFFQX1
*I *841:SI I *C 93.525 49.735 *L 0.00169 *D SDFFQXL
*I *826:SI I *C 82.505 49.735 *L 0.00169 *D SDFFQXL
*I *811:SI I *C 82.215 47.125 *L 0.00172 *D SDFFQX1
*I *1286:B1 I *C 95.265 47.125 *L 0.00171 *D AO22XL
*I *856:D I *C 75.835 47.125 *L 0.00181 *D SDFFQXL
*I *916:D I *C 72.645 57.565 *L 0.00181 *D SDFFQXL
*I *736:D I *C 71.775 54.955 *L 0.00183 *D SDFFQX1
*I *1297:B1 I *C 76.415 62.785 *L 0.00171 *D AO22XL
*I *901:SI I *C 72.355 62.785 *L 0.00169 *D SDFFQXL
*I *781:SI I *C 68.005 65.395 *L 0.00172 *D SDFFQX1
*I *796:SI I *C 68.585 68.005 *L 0.00172 *D SDFFQX1
*I *938:Y O *C 70.035 73.805 *L 0 *D AO21X1

*CAP
1 *654:2 2.29494e-05
2 *654:3 2.29494e-05
3 *654:4 0.000210163
4 *654:5 0.00032692
5 *654:6 2.29494e-05
6 *654:7 0.000116757
7 *654:8 2.29494e-05
8 *654:9 0.000504887
9 *654:11 0.000504887
10 *654:13 0.000280217
11 *654:14 0.000280217
12 *654:15 6.88482e-05
13 *654:16 9.17977e-05
14 *654:17 6.88482e-05
15 *654:18 0.000186811
16 *654:19 4.58988e-05
17 *654:20 0.000202042
18 *654:21 0.000186811
19 *654:22 2.33514e-05
20 *654:23 0.000202042
21 *654:25 2.33514e-05
22 *654:26 0.000500171
23 *654:28 4.76353e-05
24 *654:29 0.000452536
25 *654:30 2.22686e-05
26 *654:31 2.22686e-05
27 *654:32 2.22686e-05
28 *654:33 2.22686e-05
29 *654:35 0.000142906
30 *654:36 0.000166724
31 *654:38 0.000905071
32 *654:40 0.000200418
33 *654:41 0.000905071
34 *654:42 0.000200418
35 *654:44 2.38177e-05
36 *654:45 0.000166724
37 *654:47 0.000200418
38 *654:48 0.000166724
39 *654:49 0.000200418
40 *654:52 0.000501185
41 *654:54 0.00055646
42 *654:55 0.00055244
43 *654:56 5.52757e-05
44 *654:57 0.00055244
45 *654:59 0.000356162
46 *654:61 0.000356162
47 *654:62 0.000120282
48 *654:63 0.000312733
49 *654:64 0.000553297
50 *654:65 8.21913e-05
51 *654:66 0.000360846
52 *654:68 8.21913e-05
53 *654:69 0.000383559
54 *654:70 2.40564e-05
55 *654:71 0.000356162
56 *654:72 2.73971e-05
57 *654:73 2.40564e-05
58 *654:74 7.21692e-05
59 *654:75 7.21692e-05
60 *654:77 7.21692e-05
61 *654:78 0.000216507
62 *654:80 0.000144338
63 *654:82 0.000410956
64 *654:83 0.000410956
65 *654:84 7.21692e-05
66 *654:85 0.000312733
67 *654:86 0.000240564
68 *654:88 5.47942e-05
69 *654:89 0.000219177
70 *654:90 0.000164383
71 *654:91 2.40564e-05
72 *654:92 0.000457071
73 *654:93 2.40564e-05
74 *654:94 0.000457071
75 *654:96 2.73971e-05
76 *654:97 2.73971e-05

*RES
1 *654:98 *938:Y 1.4
2 *654:97 *654:98 1.4
3 *654:96 *654:97 0.124289
4 *654:94 *654:96 1.4
5 *654:93 *796:SI 1.4
6 *654:92 *654:94 2.36149
7 *654:91 *654:93 0.124289
8 *654:90 *654:92 1.4
9 *654:89 *654:91 1.4
10 *654:89 *654:90 0.745732
11 *654:88 *654:89 0.248577
12 *654:86 *654:88 1.4
13 *654:85 *781:SI 1.4
14 *654:85 *654:86 1.24289
15 *654:84 *654:85 0.372866
16 *654:83 *654:84 1.4
17 *654:82 *654:83 1.86433
18 *654:80 *654:82 1.4
19 *654:78 *901:SI 1.4
20 *654:78 *654:80 0.745732
21 *654:77 *1297:B1 1.4
22 *654:75 *654:78 0.372866
23 *654:74 *654:77 0.372866
24 *654:73 *736:D 1.4
25 *654:72 *654:75 1.4
26 *654:71 *654:74 1.4
27 *654:70 *654:73 0.124289
28 *654:69 *654:72 0.124289
29 *654:69 *654:71 1.61575
30 *654:68 *654:70 1.4
31 *654:66 *654:69 1.4
32 *654:65 *654:68 0.372866
33 *654:64 *916:D 1.4
34 *654:64 *654:66 1.86433
35 *654:63 *654:65 1.4
36 *654:63 *654:64 0.99431
37 *654:62 *654:63 0.621444
38 *654:61 *654:62 1.4
39 *654:59 *654:61 1.61575
40 *654:58 *856:D 1.4
41 *654:57 *654:59 1.4
42 *654:56 *654:58 1.4
43 *654:55 *654:57 2.85854
44 *654:54 *654:56 0.248576
45 *654:54 *654:55 1.4
46 *654:52 *654:54 2.48569
47 *654:50 *1286:B1 1.4
48 *654:49 *654:52 1.4
49 *654:49 *811:SI 1.4
50 *654:48 *654:50 1.4
51 *654:47 *654:49 1.11859
52 *654:45 *654:48 0.869979
53 *654:44 *654:47 1.4
54 *654:43 *826:SI 1.4
55 *654:42 *654:45 1.4
56 *654:41 *654:44 0.124283
57 *654:41 *654:43 1.4
58 *654:40 *654:42 1.11859
59 *654:38 *654:41 4.59846
60 *654:38 *654:40 1.4
61 *654:37 *841:SI 1.4
62 *654:36 *654:38 0.124283
63 *654:36 *654:37 1.4
64 *654:35 *654:36 0.745696
65 *654:33 *654:35 1.4
66 *654:32 *766:SI 1.4
67 *654:31 *654:33 0.124288
68 *654:30 *654:32 0.124288
69 *654:29 *654:31 1.4
70 *654:28 *654:30 1.4
71 *654:26 *654:29 2.36137
72 *654:26 *654:28 0.248565
73 *654:25 *871:SI 1.4
74 *654:23 *654:26 1.4
75 *654:22 *654:25 0.124285
76 *654:21 *1296:B1 1.4
77 *654:20 *654:23 1.11859
78 *654:19 *654:22 1.4
79 *654:18 *654:21 0.994277
80 *654:17 *654:20 1.4
81 *654:17 *654:19 0.248578
82 *654:16 *654:18 1.4
83 *654:16 *654:17 0.124289
84 *654:15 *654:16 0.372866
85 *654:14 *654:15 1.4
86 *654:13 *654:14 1.49141
87 *654:11 *654:13 1.4
88 *654:10 *886:D 1.4
89 *654:9 *654:11 2.73435
90 *654:8 *654:10 1.4
91 *654:7 *654:9 1.4
92 *654:6 *654:8 0.124289
93 *654:5 *654:7 0.621423
94 *654:5 *654:6 1.4
95 *654:4 *654:5 1.11856
96 *654:3 *654:4 1.4
97 *654:2 *654:3 0.124289
98 *654:1 *654:2 1.4
99 *751:SI *654:1 1.4
*END

*D_NET *655 0.0158696

*CONN
*I *771:SI I *C 75.545 5.365 *L 0.00172 *D SDFFQX1
*I *906:D I *C 71.775 5.365 *L 0.00181 *D SDFFQXL
*I *786:SI I *C 71.195 7.975 *L 0.00172 *D SDFFQX1
*I *891:SI I *C 69.745 10.585 *L 0.00172 *D SDFFQX1
*I *756:SI I *C 77.865 10.585 *L 0.00172 *D SDFFQX1
*I *876:D I *C 79.605 13.195 *L 0.00181 *D SDFFQXL
*I *801:SI I *C 79.025 21.025 *L 0.00172 *D SDFFQX1
*I *861:SI I *C 79.025 18.415 *L 0.00172 *D SDFFQX1
*I *816:SI I *C 77.575 23.635 *L 0.00172 *D SDFFQX1
*I *831:SI I *C 75.545 26.245 *L 0.00172 *D SDFFQX1
*I *846:D I *C 73.515 31.465 *L 0.00181 *D SDFFQXL
*I *972:Y O *C 61.915 23.055 *L 0 *D CLKXOR2X1
*I *1280:B1 I *C 77.865 34.075 *L 0.00171 *D AO22XL
*I *1283:B1 I *C 73.225 39.295 *L 0.00171 *D AO22XL
*I *741:SI I *C 62.785 18.415 *L 0.00172 *D SDFFQX1
*I *726:D I *C 61.335 21.025 *L 0.00183 *D SDFFQX1
*I *1289:B1 I *C 83.085 39.295 *L 0.00171 *D AO22XL

*CAP
1 *655:1 4.23373e-05
2 *655:2 4.23373e-05
3 *655:3 0.000327997
4 *655:4 0.000378458
5 *655:5 4.23373e-05
6 *655:6 5.04611e-05
7 *655:7 4.23373e-05
8 *655:8 0.000232855
9 *655:10 0.000423373
10 *655:11 0.000211687
11 *655:13 2.11687e-05
12 *655:14 0.000126153
13 *655:15 0.000580302
14 *655:16 0.000126153
15 *655:17 0.000629069
16 *655:19 4.87664e-05
17 *655:20 2.11687e-05
18 *655:22 0.000179557
19 *655:23 2.11687e-05
20 *655:24 0.00078556
21 *655:26 0.000852894
22 *655:27 8.73651e-05
23 *655:28 0.00024689
24 *655:29 4.36826e-05
25 *655:30 8.73651e-05
26 *655:31 7.3997e-05
27 *655:32 4.36826e-05
28 *655:34 0.000250611
29 *655:35 0.000202001
30 *655:37 4.23373e-05
31 *655:38 0.000176614
32 *655:40 0.000202001
33 *655:41 4.23373e-05
34 *655:42 0.000170769
35 *655:45 0.0001496
36 *655:46 2.11687e-05
37 *655:47 0.000193465
38 *655:49 0.00118584
39 *655:50 0.000193465
40 *655:51 0.00118584
41 *655:52 0.000432134
42 *655:53 6.3506e-05
43 *655:54 0.000696216
44 *655:55 0.000148181
45 *655:56 0.000264082
46 *655:59 8.46747e-05
47 *655:60 0.000442206
48 *655:61 0.000126153
49 *655:62 0.000515569
50 *655:63 2.76379e-05
51 *655:64 7.56916e-05
52 *655:65 5.04611e-05
53 *655:66 0.000101001
54 *655:67 4.80149e-05
55 *655:68 0.000384119
56 *655:69 0.000254024
57 *655:70 6.3506e-05
58 *655:71 0.000400836
59 *655:72 4.80149e-05
60 *655:73 0.000384119
61 *655:74 0.000254024
62 *655:75 6.3506e-05
63 *655:76 0.000400836
64 *655:81 0.000333447
65 *655:82 0.000333447
66 *655:83 4.45373e-05
67 *655:84 4.45373e-05

*RES
1 *655:84 *1289:B1 1.4
2 *655:83 *655:84 0.248576
3 *655:82 *655:83 1.4
4 *655:81 *655:82 1.73996
5 *655:76 *655:81 1.4
6 *655:75 *726:D 1.4
7 *655:74 *741:SI 1.4
8 *655:73 *1283:B1 1.4
9 *655:72 *1280:B1 1.4
10 *655:71 *655:76 2.23718
11 *655:70 *655:75 0.372866
12 *655:69 *655:74 1.49146
13 *655:68 *655:73 1.98852
14 *655:67 *655:72 0.248565
15 *655:66 *655:71 1.4
16 *655:65 *655:70 1.4
17 *655:64 *655:69 1.4
18 *655:63 *655:68 1.4
19 *655:62 *655:67 1.4
20 *655:62 *655:66 0.497139
21 *655:61 *655:65 0.248565
22 *655:61 *655:64 0.372848
23 *655:60 *655:63 0.124288
24 *655:60 *655:62 1.86432
25 *655:59 *655:61 1.4
26 *655:56 *655:60 1.4
27 *655:55 *655:59 0.497155
28 *655:55 *972:Y 1.4
29 *655:54 *846:D 1.4
30 *655:54 *655:56 1.36711
31 *655:53 *655:55 0.372866
32 *655:52 *655:54 2.23709
33 *655:51 *655:53 1.4
34 *655:50 *655:52 1.4
35 *655:49 *655:51 5.84129
36 *655:47 *655:50 0.870018
37 *655:46 *655:49 1.4
38 *655:45 *831:SI 1.4
39 *655:45 *655:47 1.4
40 *655:42 *655:46 0.124289
41 *655:42 *655:45 0.870018
42 *655:41 *816:SI 1.4
43 *655:40 *861:SI 1.4
44 *655:38 *655:42 1.4
45 *655:37 *655:41 0.248578
46 *655:35 *655:40 1.1186
47 *655:35 *801:SI 1.4
48 *655:34 *655:38 0.869979
49 *655:34 *655:37 1.4
50 *655:33 *876:D 1.4
51 *655:32 *655:35 1.4
52 *655:31 *655:34 0.372848
53 *655:30 *655:33 1.4
54 *655:29 *655:32 0.248566
55 *655:28 *655:31 1.4
56 *655:27 *655:30 0.497132
57 *655:26 *655:29 1.4
58 *655:26 *655:28 1.36717
59 *655:24 *655:27 1.4
60 *655:24 *655:26 3.35579
61 *655:23 *756:SI 1.4
62 *655:22 *655:24 0.994308
63 *655:20 *655:23 0.124289
64 *655:19 *655:22 1.4
65 *655:18 *891:SI 1.4
66 *655:17 *655:20 1.4
67 *655:17 *655:19 0.248566
68 *655:16 *655:18 1.4
69 *655:15 *655:17 2.8585
70 *655:14 *655:16 0.621413
71 *655:13 *655:15 1.4
72 *655:11 *655:14 1.4
73 *655:11 *655:13 0.124289
74 *655:10 *786:SI 1.4
75 *655:10 *655:11 1.1186
76 *655:8 *655:10 1.36718
77 *655:7 *906:D 1.4
78 *655:6 *655:8 1.4
79 *655:5 *655:7 0.248578
80 *655:4 *655:6 0.248565
81 *655:4 *655:5 1.4
82 *655:3 *655:4 1.61567
83 *655:2 *655:3 1.4
84 *655:1 *655:2 0.248578
85 *771:SI *655:1 1.4
*END

*D_NET *656 0.0188872

*CONN
*I *1293:B1 I *C 100.195 57.565 *L 0.00171 *D AO22XL
*I *867:SI I *C 101.355 65.395 *L 0.00169 *D SDFFQXL
*I *762:SI I *C 98.165 70.615 *L 0.00172 *D SDFFQX1
*I *837:SI I *C 93.525 65.395 *L 0.00169 *D SDFFQXL
*I *882:D I *C 92.075 73.225 *L 0.00181 *D SDFFQXL
*I *1284:B1 I *C 92.655 62.785 *L 0.00171 *D AO22XL
*I *732:D I *C 83.665 62.785 *L 0.00183 *D SDFFQX1
*I *747:SI I *C 85.695 60.175 *L 0.00172 *D SDFFQX1
*I *807:SI I *C 83.955 54.955 *L 0.00172 *D SDFFQX1
*I *777:SI I *C 75.835 65.395 *L 0.00172 *D SDFFQX1
*I *852:D I *C 80.765 68.005 *L 0.00181 *D SDFFQXL
*I *822:SI I *C 79.895 73.225 *L 0.00169 *D SDFFQXL
*I *912:D I *C 65.395 60.175 *L 0.00181 *D SDFFQXL
*I *1291:B1 I *C 73.805 73.225 *L 0.00171 *D AO22XL
*I *945:Y O *C 63.075 68.585 *L 0 *D OAI21X1
*I *897:SI I *C 64.525 62.785 *L 0.00169 *D SDFFQXL
*I *792:SI I *C 68.005 54.955 *L 0.00172 *D SDFFQX1

*CAP
1 *656:2 2.29494e-05
2 *656:3 2.29494e-05
3 *656:4 0.000653839
4 *656:5 0.000653839
5 *656:6 0.000252444
6 *656:7 6.88482e-05
7 *656:8 0.000183595
8 *656:9 2.33514e-05
9 *656:10 0.000420325
10 *656:11 2.33514e-05
11 *656:12 0.000630488
12 *656:13 2.33514e-05
13 *656:15 0.000233514
14 *656:17 0.000367191
15 *656:18 0.000481938
16 *656:19 0.00039014
17 *656:20 0.000481938
18 *656:22 2.29494e-05
19 *656:23 2.33514e-05
20 *656:25 0.000186811
21 *656:26 2.33514e-05
22 *656:27 0.000186811
23 *656:29 4.58988e-05
24 *656:30 0.000711432
25 *656:31 2.33514e-05
26 *656:32 0.000665533
27 *656:33 2.33514e-05
28 *656:34 9.34056e-05
29 *656:36 0.000280217
30 *656:37 4.58988e-05
31 *656:38 0.000186811
32 *656:39 0.000160646
33 *656:40 0.000137696
34 *656:41 7.00542e-05
35 *656:42 0.000114747
36 *656:43 0.000114747
37 *656:44 2.29494e-05
38 *656:45 7.00542e-05
39 *656:46 0.000280217
40 *656:47 4.67028e-05
41 *656:48 0.000373622
42 *656:50 0.000280217
43 *656:51 4.67028e-05
44 *656:52 0.000373622
45 *656:53 4.58988e-05
46 *656:56 0.000542692
47 *656:57 0.000210163
48 *656:58 0.00145569
49 *656:59 0.000630488
50 *656:61 0.000986295
51 *656:62 0.000420325
52 *656:63 6.88482e-05
53 *656:65 0.000288677
54 *656:66 2.73971e-05
55 *656:67 0.000137696
56 *656:68 6.88482e-05
57 *656:69 0.000288677
58 *656:70 0.000216507
59 *656:71 0.000688573
60 *656:73 0.000246574
61 *656:74 0.000433015
62 *656:76 0.000550877
63 *656:78 0.000246574
64 *656:79 8.21913e-05
65 *656:80 0.000625466
66 *656:83 2.40564e-05
67 *656:84 8.21913e-05
68 *656:86 0.000408959
69 *656:88 2.40564e-05
70 *656:90 0.000246574
71 *656:93 0.000246574
72 *656:94 2.40564e-05
73 *656:95 2.40564e-05

*RES
1 *656:95 *792:SI 1.4
2 *656:94 *656:95 0.124289
3 *656:93 *656:94 1.4
4 *656:90 *656:93 1.1186
5 *656:89 *897:SI 1.4
6 *656:88 *945:Y 1.4
7 *656:86 *656:90 1.4
8 *656:84 *656:89 1.4
9 *656:83 *656:88 0.124289
10 *656:82 *1291:B1 1.4
11 *656:80 *656:86 2.11291
12 *656:80 *912:D 1.4
13 *656:79 *656:84 0.372866
14 *656:78 *656:83 1.4
15 *656:76 *656:82 1.4
16 *656:75 *822:SI 1.4
17 *656:74 *656:80 1.1186
18 *656:74 *656:79 1.4
19 *656:73 *656:78 1.1186
20 *656:72 *852:D 1.4
21 *656:71 *656:76 2.61006
22 *656:71 *656:75 1.4
23 *656:70 *656:74 1.1186
24 *656:69 *656:73 1.4
25 *656:68 *656:72 1.4
26 *656:67 *656:71 0.745732
27 *656:66 *656:70 1.4
28 *656:65 *656:69 1.49146
29 *656:63 *656:68 0.372866
30 *656:62 *656:67 1.4
31 *656:61 *656:66 0.124289
32 *656:61 *656:65 1.4
33 *656:60 *777:SI 1.4
34 *656:59 *656:63 1.4
35 *656:59 *656:62 2.23712
36 *656:58 *656:61 4.35011
37 *656:58 *656:60 1.4
38 *656:57 *656:59 1.11856
39 *656:56 *656:58 2.48577
40 *656:56 *656:57 1.4
41 *656:53 *656:56 0.248578
42 *656:52 *807:SI 1.4
43 *656:51 *747:SI 1.4
44 *656:50 *656:53 1.4
45 *656:48 *656:52 1.98855
46 *656:47 *656:51 0.248569
47 *656:46 *656:50 1.49141
48 *656:45 *732:D 1.4
49 *656:44 *656:48 1.4
50 *656:43 *656:47 1.4
51 *656:42 *656:46 1.4
52 *656:41 *656:45 0.372854
53 *656:40 *656:44 0.124289
54 *656:40 *656:43 0.621444
55 *656:39 *656:42 0.621444
56 *656:39 *656:41 1.4
57 *656:38 *656:40 1.4
58 *656:37 *656:39 0.248578
59 *656:36 *656:38 0.994277
60 *656:36 *656:37 1.4
61 *656:34 *656:36 0.497138
62 *656:33 *1284:B1 1.4
63 *656:32 *656:34 1.4
64 *656:31 *656:33 0.124285
65 *656:30 *656:32 3.60437
66 *656:30 *656:31 1.4
67 *656:29 *656:30 0.248578
68 *656:27 *656:29 1.4
69 *656:26 *882:D 1.4
70 *656:25 *656:27 0.994277
71 *656:23 *656:26 0.124285
72 *656:22 *656:25 1.4
73 *656:21 *837:SI 1.4
74 *656:20 *656:23 1.4
75 *656:19 *656:22 0.124289
76 *656:19 *656:21 1.4
77 *656:18 *656:20 2.61006
78 *656:17 *656:19 1.98862
79 *656:15 *656:18 1.4
80 *656:13 *656:17 1.4
81 *656:12 *762:SI 1.4
82 *656:12 *656:15 1.24285
83 *656:11 *867:SI 1.4
84 *656:10 *656:13 0.124285
85 *656:10 *656:12 2.11284
86 *656:9 *656:11 0.124285
87 *656:8 *656:10 1.4
88 *656:7 *656:9 1.4
89 *656:6 *656:8 0.99431
90 *656:6 *656:7 0.372866
91 *656:5 *656:6 1.4
92 *656:4 *656:5 3.47997
93 *656:3 *656:4 1.4
94 *656:2 *656:3 0.124289
95 *656:1 *656:2 1.4
96 *1293:B1 *656:1 1.4
*END

*D_NET *657 0.0163102

*CONN
*I *743:SI I *C 49.445 57.565 *L 0.00172 *D SDFFQX1
*I *1290:B1 I *C 44.805 54.955 *L 0.00171 *D AO22XL
*I *788:SI I *C 41.615 52.345 *L 0.00172 *D SDFFQX1
*I *863:SI I *C 47.125 49.735 *L 0.00169 *D SDFFQXL
*I *1338:A I *C 41.035 47.415 *L 0.00273 *D CLKINVX1
*I *848:D I *C 54.375 47.125 *L 0.00181 *D SDFFQXL
*I *833:SI I *C 41.325 39.295 *L 0.00172 *D SDFFQX1
*I *968:Y O *C 55.245 52.925 *L 0 *D AO21X1
*I *758:SI I *C 54.085 44.515 *L 0.00172 *D SDFFQX1
*I *773:SI I *C 56.405 54.955 *L 0.00172 *D SDFFQX1
*I *878:D I *C 53.505 39.295 *L 0.00181 *D SDFFQXL
*I *893:SI I *C 63.945 52.345 *L 0.00169 *D SDFFQXL
*I *908:D I *C 64.815 49.735 *L 0.00181 *D SDFFQXL
*I *728:D I *C 62.205 44.515 *L 0.00183 *D SDFFQX1
*I *803:SI I *C 59.885 41.905 *L 0.00172 *D SDFFQX1
*I *818:SI I *C 63.075 36.685 *L 0.00172 *D SDFFQX1

*CAP
1 *657:2 2.82705e-05
2 *657:3 2.82705e-05
3 *657:4 0.000176311
4 *657:5 0.000176311
5 *657:6 0.000480598
6 *657:7 0.000480598
7 *657:8 5.03747e-05
8 *657:9 0.000176311
9 *657:11 0.000125937
10 *657:12 0.000282705
11 *657:13 0.000282705
12 *657:14 0.000100749
13 *657:15 0.000327436
14 *657:16 2.82705e-05
15 *657:17 0.000226687
16 *657:18 2.82705e-05
17 *657:19 0.000600778
18 *657:21 0.00122289
19 *657:22 8.58254e-05
20 *657:24 0.00073557
21 *657:26 0.000201499
22 *657:27 2.76379e-05
23 *657:28 0.000216067
24 *657:30 0.000906748
25 *657:31 0.000288261
26 *657:32 0.000408127
27 *657:34 0.000705248
28 *657:35 0.000288261
29 *657:37 0.00019206
30 *657:38 2.86085e-05
31 *657:39 5.47942e-05
32 *657:40 2.76379e-05
33 *657:41 2.86085e-05
34 *657:42 0.000164383
35 *657:43 8.29136e-05
36 *657:45 0.000109588
37 *657:46 2.40564e-05
38 *657:47 2.40074e-05
39 *657:48 5.52757e-05
40 *657:50 0.000264547
41 *657:51 2.40564e-05
42 *657:52 2.40074e-05
43 *657:53 0.000456141
44 *657:54 0.000144338
45 *657:55 0.000120209
46 *657:58 0.000456141
47 *657:60 0.000718585
48 *657:62 0.000718585
49 *657:63 0.000192084
50 *657:64 4.80394e-05
51 *657:65 0.000144045
52 *657:67 0.000248741
53 *657:68 8.29136e-05
54 *657:69 0.000165827
55 *657:70 2.40074e-05
56 *657:71 0.000456141
57 *657:72 2.40074e-05
58 *657:73 0.000696216
59 *657:76 0.000240074
60 *657:77 0.000331654
61 *657:78 0.000110551
62 *657:79 0.000221103
63 *657:80 0.000408127
64 *657:81 2.40074e-05
65 *657:82 0.000408127
66 *657:83 2.40074e-05
67 *657:84 2.76379e-05
68 *657:86 2.76379e-05

*RES
1 *657:87 *818:SI 1.4
2 *657:86 *657:87 1.4
3 *657:84 *657:86 0.124288
4 *657:83 *803:SI 1.4
5 *657:82 *657:84 1.4
6 *657:81 *657:83 0.124283
7 *657:80 *657:82 2.11281
8 *657:79 *657:81 1.4
9 *657:78 *657:80 1.4
10 *657:77 *657:79 0.994306
11 *657:77 *657:78 0.497153
12 *657:76 *657:77 1.4
13 *657:73 *657:76 1.24283
14 *657:73 *728:D 1.4
15 *657:72 *908:D 1.4
16 *657:71 *657:73 2.36137
17 *657:70 *657:72 0.124283
18 *657:69 *657:71 1.4
19 *657:68 *657:70 1.4
20 *657:67 *657:69 0.745729
21 *657:67 *657:68 0.372865
22 *657:65 *657:67 1.4
23 *657:64 *893:SI 1.4
24 *657:63 *657:65 0.745696
25 *657:63 *657:64 0.248568
26 *657:62 *657:63 1.4
27 *657:60 *657:62 3.23149
28 *657:58 *878:D 1.4
29 *657:55 *657:60 1.4
30 *657:54 *773:SI 1.4
31 *657:53 *657:58 2.36137
32 *657:52 *758:SI 1.4
33 *657:51 *968:Y 1.4
34 *657:50 *657:55 0.621435
35 *657:50 *657:54 0.745732
36 *657:48 *657:53 1.4
37 *657:47 *657:52 0.124283
38 *657:46 *657:51 0.124289
39 *657:45 *657:50 1.4
40 *657:44 *833:SI 1.4
41 *657:43 *657:48 0.248576
42 *657:43 *657:47 1.4
43 *657:42 *657:46 1.4
44 *657:42 *657:45 0.497155
45 *657:41 *657:44 1.4
46 *657:40 *657:43 0.124288
47 *657:39 *657:42 0.248577
48 *657:38 *657:41 0.124289
49 *657:37 *657:40 1.4
50 *657:35 *657:39 1.4
51 *657:34 *657:38 1.4
52 *657:32 *657:37 0.994261
53 *657:32 *848:D 1.4
54 *657:31 *657:35 1.49141
55 *657:30 *657:34 3.48006
56 *657:30 *1338:A 1.4
57 *657:28 *657:32 1.11854
58 *657:27 *657:31 1.4
59 *657:26 *657:30 0.994302
60 *657:25 *863:SI 1.4
61 *657:24 *657:28 1.4
62 *657:24 *657:27 0.124288
63 *657:22 *657:26 1.4
64 *657:21 *657:25 1.4
65 *657:21 *657:24 3.10721
66 *657:20 *788:SI 1.4
67 *657:19 *657:22 0.372866
68 *657:19 *657:21 2.2372
69 *657:18 *657:20 1.4
70 *657:17 *657:19 1.4
71 *657:16 *657:18 0.124283
72 *657:15 *657:17 1.11859
73 *657:15 *657:16 1.4
74 *657:14 *657:15 0.497155
75 *657:13 *657:14 1.4
76 *657:12 *657:13 1.24283
77 *657:11 *657:12 1.4
78 *657:9 *657:11 0.621444
79 *657:9 *1290:B1 1.4
80 *657:8 *657:9 0.248578
81 *657:7 *657:8 1.4
82 *657:6 *657:7 2.11281
83 *657:5 *657:6 1.4
84 *657:4 *657:5 0.870021
85 *657:3 *657:4 1.4
86 *657:2 *657:3 0.124283
87 *657:1 *657:2 1.4
88 *743:SI *657:1 1.4
*END

*D_NET *658 0.0144459

*CONN
*I *872:SI I *C 101.355 78.445 *L 0.00169 *D SDFFQXL
*I *752:SI I *C 101.355 81.055 *L 0.00172 *D SDFFQX1
*I *887:D I *C 97.005 88.885 *L 0.00181 *D SDFFQXL
*I *1261:B1 I *C 101.065 70.615 *L 0.00171 *D AO22XL
*I *767:SI I *C 101.065 91.495 *L 0.00172 *D SDFFQX1
*I *812:SI I *C 87.145 88.885 *L 0.00172 *D SDFFQX1
*I *827:SI I *C 86.565 91.495 *L 0.00169 *D SDFFQXL
*I *857:D I *C 83.665 81.055 *L 0.00181 *D SDFFQXL
*I *737:D I *C 78.735 81.055 *L 0.00183 *D SDFFQX1
*I *1287:B1 I *C 92.655 75.835 *L 0.00171 *D AO22XL
*I *842:SI I *C 90.625 75.835 *L 0.00169 *D SDFFQXL
*I *928:Y O *C 75.255 79.315 *L 0 *D NAND2BX1
*I *1299:B1 I *C 76.415 73.515 *L 0.00164 *D AO22X1
*I *797:SI I *C 73.225 83.665 *L 0.00172 *D SDFFQX1
*I *917:D I *C 71.195 86.275 *L 0.00181 *D SDFFQXL
*I *902:SI I *C 71.195 88.885 *L 0.00169 *D SDFFQXL
*I *782:SI I *C 73.225 88.885 *L 0.00172 *D SDFFQX1

*CAP
1 *658:1 0.000177176
2 *658:2 0.000177176
3 *658:4 4.24564e-05
4 *658:5 4.24564e-05
5 *658:6 0.00133736
6 *658:7 0.000708703
7 *658:8 0.000805831
8 *658:9 0.000177176
9 *658:10 0.000275966
10 *658:11 2.29494e-05
11 *658:12 2.12282e-05
12 *658:13 0.000997725
13 *658:14 2.29494e-05
14 *658:15 2.12282e-05
15 *658:17 0.000742987
16 *658:22 4.24564e-05
17 *658:26 0.000177176
18 *658:27 2.12282e-05
19 *658:28 0.000177176
20 *658:29 0.000511841
21 *658:30 2.12282e-05
22 *658:31 0.000590586
23 *658:32 2.12282e-05
24 *658:33 0.000212282
25 *658:34 7.87448e-05
26 *658:36 0.000573161
27 *658:37 0.000445792
28 *658:39 1.96862e-05
29 *658:40 0.000599496
30 *658:41 0.000445792
31 *658:42 1.96862e-05
32 *658:43 1.96862e-05
33 *658:44 0.000238617
34 *658:45 0.000326447
35 *658:47 1.96862e-05
36 *658:48 0.000204704
37 *658:49 0.000326447
38 *658:51 6.14113e-05
39 *658:52 0.000323193
40 *658:54 0.000160646
41 *658:55 0.000243264
42 *658:56 4.86529e-05
43 *658:57 0.0001799
44 *658:58 0.000160646
45 *658:59 0.000243264
46 *658:60 4.86529e-05
47 *658:61 5.47942e-05
48 *658:63 0.000102352
49 *658:65 5.47942e-05
50 *658:67 0.000163763
51 *658:69 0.000288677
52 *658:70 6.14113e-05
53 *658:71 2.43264e-05
54 *658:72 0.000288677
55 *658:73 0.000145959
56 *658:74 2.43264e-05
57 *658:76 0.000145959
58 *658:78 0.000122823
59 *658:80 0.000307056
60 *658:81 0.000184234
61 *658:83 0.000170285
62 *658:85 0.000170285

*RES
1 *658:86 *782:SI 1.4
2 *658:85 *658:86 1.4
3 *658:83 *658:85 0.870021
4 *658:81 *902:SI 1.4
5 *658:81 *658:83 1.4
6 *658:80 *917:D 1.4
7 *658:80 *658:81 1.11859
8 *658:78 *658:80 0.745727
9 *658:77 *797:SI 1.4
10 *658:76 *658:78 1.4
11 *658:74 *658:77 1.4
12 *658:73 *658:76 0.745732
13 *658:72 *1299:B1 1.4
14 *658:71 *658:74 0.124289
15 *658:70 *658:73 1.4
16 *658:69 *658:72 1.49146
17 *658:67 *658:71 1.4
18 *658:67 *658:70 0.372863
19 *658:65 *658:69 1.4
20 *658:64 *928:Y 1.4
21 *658:63 *658:67 0.621439
22 *658:62 *842:SI 1.4
23 *658:61 *658:65 0.248577
24 *658:60 *658:64 1.4
25 *658:59 *658:63 1.4
26 *658:58 *658:62 1.4
27 *658:57 *658:61 1.4
28 *658:56 *658:60 0.248578
29 *658:55 *658:59 1.24289
30 *658:54 *658:58 0.870021
31 *658:52 *658:57 0.994307
32 *658:52 *658:56 1.4
33 *658:51 *658:55 1.4
34 *658:49 *658:54 1.4
35 *658:49 *1287:B1 1.4
36 *658:48 *658:52 0.870015
37 *658:48 *658:51 0.372863
38 *658:47 *737:D 1.4
39 *658:45 *658:49 1.86426
40 *658:44 *658:48 1.4
41 *658:43 *658:47 0.124283
42 *658:42 *857:D 1.4
43 *658:41 *658:45 1.4
44 *658:40 *658:44 1.24289
45 *658:40 *658:43 1.4
46 *658:39 *658:42 0.124283
47 *658:37 *658:41 2.61006
48 *658:36 *658:40 2.11291
49 *658:36 *658:39 1.4
50 *658:35 *827:SI 1.4
51 *658:34 *658:37 1.4
52 *658:33 *658:36 1.24289
53 *658:32 *658:35 1.4
54 *658:31 *658:34 0.497131
55 *658:31 *658:33 1.4
56 *658:30 *658:32 0.124289
57 *658:29 *658:31 3.23135
58 *658:28 *658:30 1.4
59 *658:27 *658:29 1.4
60 *658:26 *658:28 1.11854
61 *658:22 *658:27 0.124289
62 *658:22 *658:26 1.4
63 *658:21 *812:SI 1.4
64 *658:19 *767:SI 1.4
65 *658:18 *1261:B1 1.4
66 *658:17 *658:22 0.124289
67 *658:17 *658:21 1.4
68 *658:16 *887:D 1.4
69 *658:15 *658:19 1.4
70 *658:14 *658:18 1.4
71 *658:13 *658:17 4.22582
72 *658:13 *658:16 1.4
73 *658:12 *658:15 0.124289
74 *658:11 *658:14 0.124289
75 *658:10 *658:13 1.61575
76 *658:9 *658:12 1.4
77 *658:8 *658:11 1.4
78 *658:7 *658:10 1.4
79 *658:7 *658:9 1.11854
80 *658:6 *658:8 4.47423
81 *658:6 *658:7 3.35563
82 *658:5 *658:6 1.4
83 *658:4 *658:5 0.248578
84 *658:2 *658:4 1.4
85 *658:2 *752:SI 1.4
86 *658:1 *658:2 1.11854
87 *872:SI *658:1 1.4
*END

*D_NET *659 0.0510273

*CONN
*I *813:SE I *C 87.725 94.395 *L 0.00381 *D SDFFQX1
*I *812:SE I *C 87.435 89.175 *L 0.00381 *D SDFFQX1
*I *807:SE I *C 84.245 54.665 *L 0.00381 *D SDFFQX1
*I *811:SE I *C 81.925 47.415 *L 0.00381 *D SDFFQX1
*I *809:SE I *C 85.405 44.225 *L 0.00367 *D SDFFQXL
*I *808:SE I *C 60.175 65.105 *L 0.00367 *D SDFFQXL
*I *803:SE I *C 59.595 42.195 *L 0.00381 *D SDFFQX1
*I *801:SE I *C 79.315 21.315 *L 0.00381 *D SDFFQX1
*I *802:SE I *C 63.945 16.095 *L 0.00381 *D SDFFQX1
*I *800:SE I *C 27.695 7.685 *L 0.00381 *D SDFFQX1
*I *799:SE I *C 30.885 5.655 *L 0.00381 *D SDFFQX1
*I *804:SE I *C 18.995 49.445 *L 0.00381 *D SDFFQX1
*I *948:Y O *C 17.835 38.715 *L 0 *D AND2X1
*I *805:SE I *C 19.285 91.205 *L 0.00381 *D SDFFQX1
*I *810:SE I *C 37.845 94.395 *L 0.00367 *D SDFFQXL
*I *806:SE I *C 16.385 94.395 *L 0.00367 *D SDFFQXL

*CAP
1 *659:1 1.96862e-05
2 *659:2 1.96862e-05
3 *659:3 2.12282e-05
4 *659:4 2.12282e-05
5 *659:5 0.000374038
6 *659:6 0.00296871
7 *659:8 0.00259467
8 *659:10 0.000252444
9 *659:12 0.000252444
10 *659:13 4.67028e-05
11 *659:14 0.000568085
12 *659:15 4.67028e-05
13 *659:16 0.000723966
14 *659:18 0.000190541
15 *659:19 0.000155881
16 *659:20 0.000190541
17 *659:21 9.52707e-05
18 *659:22 4.45373e-05
19 *659:23 4.45373e-05
20 *659:24 9.52707e-05
21 *659:25 4.45373e-05
22 *659:26 4.45373e-05
23 *659:27 0.000133612
24 *659:29 0.00202509
25 *659:30 0.000133612
26 *659:31 0.00202509
27 *659:33 8.40261e-05
28 *659:34 8.40261e-05
29 *659:36 0.00139461
30 *659:37 0.00138261
31 *659:38 1.20037e-05
32 *659:40 2.76379e-05
33 *659:41 2.76379e-05
34 *659:42 0.000456141
35 *659:43 0.000504156
36 *659:44 0.000110551
37 *659:45 4.80149e-05
38 *659:46 0.000110551
39 *659:47 8.29136e-05
40 *659:48 0.00172971
41 *659:49 8.29136e-05
42 *659:50 0.00172971
43 *659:52 0.000201844
44 *659:54 0.0015272
45 *659:55 0.00132536
46 *659:56 0.000381036
47 *659:58 0.000381036
48 *659:61 0.00316297
49 *659:63 0.00318862
50 *659:65 0.000613549
51 *659:66 2.56424e-05
52 *659:67 0.00080396
53 *659:68 0.00180038
54 *659:69 2.56424e-05
55 *659:70 0.000190412
56 *659:71 0.00180038
57 *659:72 2.56424e-05
58 *659:73 0.000256424
59 *659:74 0.000737978
60 *659:76 0.000256424
61 *659:77 0.000737978
62 *659:79 4.23137e-05
63 *659:80 2.34394e-05
64 *659:81 4.23137e-05
65 *659:82 0.000890695
66 *659:84 0.000867256
67 *659:85 9.47969e-05
68 *659:86 2.36992e-05
69 *659:88 9.47969e-05
70 *659:89 2.36992e-05
71 *659:91 0.00322643
72 *659:93 0.00344329
73 *659:94 0.000256287
74 *659:96 3.94288e-05
75 *659:97 0.00151259
76 *659:99 0.000206241
77 *659:100 0.00151259
78 *659:102 0.000206241
79 *659:104 3.94288e-05
80 *659:106 3.94288e-05

*RES
1 *659:106 *806:SE 1.4
2 *659:104 *659:106 0.248576
3 *659:103 *810:SE 1.4
4 *659:102 *659:104 1.4
5 *659:100 *659:103 1.4
6 *659:99 *659:102 1.24283
7 *659:98 *805:SE 1.4
8 *659:97 *659:100 7.95411
9 *659:96 *659:99 1.4
10 *659:95 *659:98 1.4
11 *659:94 *659:97 1.4
12 *659:94 *659:96 0.248576
13 *659:93 *659:95 1.4
14 *659:93 *659:94 1.36717
15 *659:91 *659:93 17.8969
16 *659:90 *948:Y 1.4
17 *659:89 *659:91 1.4
18 *659:88 *659:90 1.4
19 *659:86 *659:89 0.124289
20 *659:85 *659:88 0.497155
21 *659:84 *804:SE 1.4
22 *659:84 *659:86 1.4
23 *659:82 *659:85 1.4
24 *659:82 *659:84 4.59846
25 *659:81 *799:SE 1.4
26 *659:80 *659:82 0.124283
27 *659:79 *659:81 0.248576
28 *659:77 *659:80 1.4
29 *659:76 *659:79 1.4
30 *659:75 *800:SE 1.4
31 *659:74 *659:77 3.72866
32 *659:73 *659:76 1.24283
33 *659:72 *659:75 1.4
34 *659:71 *659:74 1.4
35 *659:70 *659:73 1.4
36 *659:69 *659:72 0.124283
37 *659:68 *659:71 9.57017
38 *659:67 *659:70 1.11859
39 *659:67 *659:69 1.4
40 *659:66 *659:68 1.4
41 *659:65 *659:67 3.60435
42 *659:63 *659:66 0.124283
43 *659:63 *659:65 1.4
44 *659:62 *802:SE 1.4
45 *659:61 *659:63 15.4111
46 *659:60 *659:62 1.4
47 *659:58 *659:61 1.4
48 *659:58 *659:60 1.4
49 *659:57 *801:SE 1.4
50 *659:56 *659:58 2.2372
51 *659:55 *659:57 1.4
52 *659:54 *659:56 1.4
53 *659:54 *659:55 6.58698
54 *659:52 *659:54 0.994261
55 *659:51 *803:SE 1.4
56 *659:50 *659:52 1.4
57 *659:49 *659:51 1.4
58 *659:48 *659:50 9.19702
59 *659:47 *659:49 0.372865
60 *659:46 *659:48 1.4
61 *659:45 *659:47 1.4
62 *659:44 *659:46 0.497153
63 *659:43 *659:45 0.248565
64 *659:43 *659:44 1.4
65 *659:42 *659:43 2.36137
66 *659:41 *659:42 1.4
67 *659:40 *659:41 0.124288
68 *659:38 *659:40 1.4
69 *659:37 *808:SE 1.4
70 *659:36 *659:38 0.0621413
71 *659:36 *659:37 7.14652
72 *659:35 *659:36 1.4
73 *659:34 *659:35 1.4
74 *659:33 *659:34 0.434989
75 *659:31 *659:33 1.4
76 *659:30 *809:SE 1.4
77 *659:29 *659:31 9.32155
78 *659:27 *659:30 0.745727
79 *659:26 *659:29 1.4
80 *659:25 *811:SE 1.4
81 *659:24 *659:27 1.4
82 *659:23 *659:26 0.248576
83 *659:22 *659:25 0.248576
84 *659:21 *659:24 0.497131
85 *659:20 *659:23 1.4
86 *659:20 *659:22 1.4
87 *659:19 *659:21 1.4
88 *659:18 *659:20 0.994261
89 *659:16 *659:19 0.870015
90 *659:16 *659:18 1.4
91 *659:15 *807:SE 1.4
92 *659:14 *659:16 3.10716
93 *659:13 *659:15 0.248569
94 *659:12 *659:14 1.4
95 *659:12 *659:13 1.4
96 *659:10 *659:12 1.36718
97 *659:9 *812:SE 1.4
98 *659:8 *659:10 1.4
99 *659:7 *659:9 1.4
100 *659:6 *659:8 14.5412
101 *659:6 *659:7 1.4
102 *659:5 *659:6 2.36137
103 *659:4 *659:5 1.4
104 *659:3 *659:4 0.124289
105 *659:2 *659:3 1.4
106 *659:1 *659:2 0.124283
107 *813:SE *659:1 1.4
*END

*D_NET *660 0.0428587

*CONN
*I *902:SE I *C 71.195 89.175 *L 0.00367 *D SDFFQXL
*I *903:SE I *C 67.715 94.395 *L 0.00381 *D SDFFQX1
*I *900:SE I *C 56.405 78.735 *L 0.00367 *D SDFFQXL
*I *898:SE I *C 54.955 89.175 *L 0.00367 *D SDFFQXL
*I *897:SE I *C 64.525 63.075 *L 0.00367 *D SDFFQXL
*I *901:SE I *C 72.355 63.075 *L 0.00367 *D SDFFQXL
*I *893:SE I *C 63.945 52.635 *L 0.00367 *D SDFFQXL
*I *899:SE I *C 70.905 36.975 *L 0.00367 *D SDFFQXL
*I *891:SE I *C 70.035 10.875 *L 0.00381 *D SDFFQX1
*I *892:SE I *C 60.465 7.685 *L 0.00381 *D SDFFQX1
*I *889:SE I *C 35.815 7.685 *L 0.00381 *D SDFFQX1
*I *949:Y O *C 12.34 38.9625 *L 0 *D AND3X1
*I *890:SE I *C 11.165 7.685 *L 0.00381 *D SDFFQX1
*I *894:SE I *C 11.165 49.445 *L 0.00381 *D SDFFQX1
*I *895:SE I *C 11.165 65.105 *L 0.00381 *D SDFFQX1
*I *896:SE I *C 11.165 78.735 *L 0.00381 *D SDFFQX1

*CAP
1 *660:1 2.04704e-05
2 *660:2 2.04704e-05
3 *660:3 0.000291917
4 *660:4 0.000291917
5 *660:5 0.000368467
6 *660:6 0.000347997
7 *660:7 2.04704e-05
8 *660:9 0.000948731
9 *660:10 0.000948731
10 *660:11 2.04704e-05
11 *660:12 0.000736935
12 *660:13 0.000121632
13 *660:14 0.0020823
14 *660:15 0.000121632
15 *660:17 0.00136583
16 *660:18 2.04704e-05
17 *660:20 0.000602736
18 *660:21 2.04704e-05
19 *660:23 0.000602736
20 *660:25 0.000890086
21 *660:26 7.21692e-05
22 *660:27 0.000817917
23 *660:28 0.000164383
24 *660:29 0.000109588
25 *660:30 0.000904104
26 *660:31 0.000712324
27 *660:32 0.000739721
28 *660:34 0.000602736
29 *660:35 2.40564e-05
30 *660:38 0.00127242
31 *660:39 2.40564e-05
32 *660:41 0.00328405
33 *660:43 5.52757e-05
34 *660:44 0.00224449
35 *660:45 5.52757e-05
36 *660:46 2.52305e-05
37 *660:47 0.000232855
38 *660:49 2.52305e-05
39 *660:50 0.000857838
40 *660:53 0.0030257
41 *660:56 0.00406089
42 *660:59 0.00189303
43 *660:61 0.00236252
44 *660:62 0.00246365
45 *660:63 2.0507e-05
46 *660:64 1.21238e-06
47 *660:65 0.00012043
48 *660:66 8.70747e-05
49 *660:68 2.36992e-05
50 *660:69 8.70747e-05
51 *660:70 2.36992e-05
52 *660:71 2.0507e-05
53 *660:72 0.000703181
54 *660:73 2.0507e-05
55 *660:74 0.000703181
56 *660:76 9.47969e-05
57 *660:77 0.000118496
58 *660:78 0.00129753
59 *660:79 2.36992e-05
60 *660:80 0.00240215
61 *660:81 2.34394e-05
62 *660:82 0.00110462
63 *660:83 2.20927e-05
64 *660:84 2.34394e-05
65 *660:85 2.06241e-05
66 *660:86 2.20927e-05
67 *660:88 2.06241e-05

*RES
1 *660:90 *896:SE 1.4
2 *660:89 *895:SE 1.4
3 *660:88 *660:90 1.4
4 *660:86 *660:89 1.4
5 *660:85 *660:88 0.124283
6 *660:84 *894:SE 1.4
7 *660:83 *660:86 0.124289
8 *660:82 *660:85 1.4
9 *660:81 *660:84 0.124283
10 *660:80 *660:83 1.4
11 *660:80 *660:82 5.84129
12 *660:79 *660:81 1.4
13 *660:78 *660:80 6.83555
14 *660:77 *660:79 0.124289
15 *660:77 *660:78 1.4
16 *660:76 *660:77 0.497155
17 *660:74 *660:76 1.4
18 *660:73 *890:SE 1.4
19 *660:72 *660:74 3.72848
20 *660:71 *660:73 0.124283
21 *660:70 *660:72 1.4
22 *660:69 *660:71 1.4
23 *660:68 *660:70 0.124289
24 *660:66 *660:69 0.497155
25 *660:65 *660:68 1.4
26 *660:64 *949:Y 1.4
27 *660:63 *660:66 1.4
28 *660:62 *660:65 0.638556
29 *660:62 *660:64 0.00642841
30 *660:61 *660:63 0.124283
31 *660:61 *660:62 13.4054
32 *660:59 *660:61 1.4
33 *660:58 *889:SE 1.4
34 *660:56 *660:59 10.0672
35 *660:56 *660:58 1.4
36 *660:55 *892:SE 1.4
37 *660:53 *660:56 10.564
38 *660:53 *660:55 1.4
39 *660:52 *891:SE 1.4
40 *660:50 *660:53 4.22561
41 *660:49 *660:52 1.4
42 *660:48 *899:SE 1.4
43 *660:47 *660:50 1.4
44 *660:46 *660:49 0.124283
45 *660:45 *660:48 1.4
46 *660:44 *660:47 1.36718
47 *660:44 *660:46 1.4
48 *660:43 *660:45 0.248576
49 *660:41 *660:44 11.1858
50 *660:41 *660:43 1.4
51 *660:39 *893:SE 1.4
52 *660:38 *660:41 6.58698
53 *660:36 *901:SE 1.4
54 *660:35 *660:39 0.124289
55 *660:34 *660:38 1.4
56 *660:33 *897:SE 1.4
57 *660:32 *660:36 1.4
58 *660:31 *660:35 1.4
59 *660:31 *660:34 2.73435
60 *660:30 *660:33 1.4
61 *660:30 *660:32 3.3558
62 *660:29 *660:31 0.497155
63 *660:28 *660:30 0.745732
64 *660:27 *660:29 1.4
65 *660:26 *660:28 1.4
66 *660:25 *660:27 4.22582
67 *660:25 *660:26 0.372866
68 *660:23 *660:25 1.4
69 *660:21 *898:SE 1.4
70 *660:20 *660:23 2.73435
71 *660:19 *900:SE 1.4
72 *660:18 *660:21 0.124288
73 *660:17 *660:20 1.4
74 *660:16 *660:19 1.4
75 *660:15 *660:18 1.4
76 *660:14 *660:17 7.08446
77 *660:14 *660:16 1.4
78 *660:13 *660:15 0.621444
79 *660:12 *660:14 4.35007
80 *660:12 *660:13 1.4
81 *660:11 *660:12 0.124288
82 *660:10 *660:11 1.4
83 *660:9 *660:10 4.84726
84 *660:7 *660:9 1.4
85 *660:6 *903:SE 1.4
86 *660:5 *660:7 0.124288
87 *660:5 *660:6 2.11289
88 *660:4 *660:5 1.4
89 *660:3 *660:4 1.49146
90 *660:2 *660:3 1.4
91 *660:1 *660:2 0.124288
92 *902:SE *660:1 1.4
*END

*D_NET *661 0.0405639

*CONN
*I *738:SE I *C 80.765 83.955 *L 0.00381 *D SDFFQX1
*I *737:SE I *C 80.475 80.765 *L 0.00381 *D SDFFQX1
*I *732:SE I *C 81.925 63.075 *L 0.00381 *D SDFFQX1
*I *736:SE I *C 70.035 54.665 *L 0.00381 *D SDFFQX1
*I *734:SE I *C 78.445 42.195 *L 0.00381 *D SDFFQX1
*I *728:SE I *C 63.945 44.225 *L 0.00381 *D SDFFQX1
*I *726:SE I *C 63.075 21.315 *L 0.00381 *D SDFFQX1
*I *724:SE I *C 33.205 16.095 *L 0.00381 *D SDFFQX1
*I *725:SE I *C 28.275 10.875 *L 0.00381 *D SDFFQX1
*I *727:SE I *C 58.435 12.905 *L 0.00381 *D SDFFQX1
*I *954:Y O *C 26.245 29.145 *L 0 *D OR2X1
*I *730:SE I *C 29.435 68.295 *L 0.00381 *D SDFFQX1
*I *729:SE I *C 30.595 47.415 *L 0.00381 *D SDFFQX1
*I *731:SE I *C 30.015 83.955 *L 0.00381 *D SDFFQX1
*I *735:SE I *C 38.425 83.955 *L 0.00381 *D SDFFQX1
*I *733:SE I *C 48.865 80.765 *L 0.00381 *D SDFFQX1

*CAP
1 *661:2 4.24564e-05
2 *661:3 4.24564e-05
3 *661:4 0.000108274
4 *661:5 0.000108274
5 *661:7 0.000108274
6 *661:8 0.00150156
7 *661:9 6.36846e-05
8 *661:10 0.00197707
9 *661:11 6.36846e-05
10 *661:12 4.58988e-05
11 *661:13 0.000583785
12 *661:15 4.58988e-05
13 *661:16 0.000939595
14 *661:19 0.000939595
15 *661:21 9.62255e-05
16 *661:22 0.000912895
17 *661:23 8.21913e-05
18 *661:24 0.000888691
19 *661:25 8.21913e-05
20 *661:26 0.000716675
21 *661:27 7.20223e-05
22 *661:29 0.000716675
23 *661:30 0.000663309
24 *661:32 0.000200418
25 *661:33 0.000746223
26 *661:34 0.000200418
27 *661:35 2.40074e-05
28 *661:36 8.29136e-05
29 *661:38 2.40074e-05
30 *661:39 0.00182574
31 *661:41 0.00184691
32 *661:43 2.11687e-05
33 *661:44 0.00047938
34 *661:45 0.00047938
35 *661:46 0.000359867
36 *661:47 0.000359867
37 *661:48 2.52305e-05
38 *661:49 0.00214634
39 *661:50 0.000232855
40 *661:51 0.00255703
41 *661:52 0.000232855
42 *661:54 0.00043592
43 *661:55 0.000100922
44 *661:57 0.000423137
45 *661:58 0.000100922
46 *661:59 4.23137e-05
47 *661:60 0.000380823
48 *661:62 0.000102569
49 *661:65 0.000102569
50 *661:66 0.000800941
51 *661:67 0.000800941
52 *661:68 2.86085e-05
53 *661:69 2.86085e-05
54 *661:70 0.000151125
55 *661:71 0.00163718
56 *661:72 0.00148606
57 *661:73 0.000114434
58 *661:74 0.000200259
59 *661:75 0.000114434
60 *661:76 0.000200259
61 *661:78 0.000125937
62 *661:80 0.00191424
63 *661:81 0.0017883
64 *661:82 0.000114434
65 *661:84 0.000114434
66 *661:85 0.0012906
67 *661:86 2.51874e-05
68 *661:87 0.0012906
69 *661:89 2.51874e-05
70 *661:90 5.07618e-05
71 *661:92 0.000786808
72 *661:93 0.000913713
73 *661:94 2.05677e-05
74 *661:95 0.000177666
75 *661:96 2.05677e-05
76 *661:97 2.05677e-05
77 *661:98 0.000226245
78 *661:99 2.05677e-05
79 *661:101 0.000226245
80 *661:103 0.000736046
81 *661:104 0.000736046
82 *661:105 2.05677e-05
83 *661:106 2.05677e-05

*RES
1 *661:106 *733:SE 1.4
2 *661:105 *661:106 0.124283
3 *661:104 *661:105 1.4
4 *661:103 *661:104 3.6042
5 *661:101 *661:103 1.4
6 *661:99 *735:SE 1.4
7 *661:98 *661:101 1.36711
8 *661:97 *731:SE 1.4
9 *661:96 *661:99 0.124283
10 *661:95 *661:98 1.4
11 *661:94 *661:97 0.124283
12 *661:93 *661:96 1.4
13 *661:93 *661:95 0.86998
14 *661:92 *661:94 1.4
15 *661:92 *661:93 3.6042
16 *661:90 *661:92 0.248566
17 *661:89 *729:SE 1.4
18 *661:87 *661:90 1.4
19 *661:86 *661:89 0.124288
20 *661:85 *730:SE 1.4
21 *661:85 *661:87 6.83576
22 *661:84 *661:86 1.4
23 *661:83 *661:85 1.4
24 *661:82 *661:84 0.497155
25 *661:81 *661:83 1.4
26 *661:80 *661:82 1.4
27 *661:80 *661:81 8.82449
28 *661:78 *661:80 0.621439
29 *661:77 *954:Y 1.4
30 *661:76 *661:78 1.4
31 *661:75 *661:77 1.4
32 *661:74 *661:76 0.870021
33 *661:73 *661:75 0.497155
34 *661:72 *661:74 1.4
35 *661:71 *661:73 1.4
36 *661:71 *661:72 7.33298
37 *661:70 *661:71 0.745726
38 *661:69 *661:70 1.4
39 *661:68 *661:69 0.124289
40 *661:67 *661:68 1.4
41 *661:66 *661:67 4.59866
42 *661:65 *661:66 1.4
43 *661:62 *661:65 0.497131
44 *661:61 *727:SE 1.4
45 *661:60 *725:SE 1.4
46 *661:59 *661:62 1.4
47 *661:58 *661:61 1.4
48 *661:57 *661:60 2.23719
49 *661:57 *661:59 0.248576
50 *661:55 *661:58 0.497131
51 *661:54 *661:57 1.4
52 *661:53 *724:SE 1.4
53 *661:52 *661:55 1.4
54 *661:51 *661:54 2.11281
55 *661:51 *661:53 1.4
56 *661:50 *661:52 1.36718
57 *661:49 *661:51 10.3155
58 *661:49 *661:50 1.4
59 *661:48 *661:49 0.124283
60 *661:47 *661:48 1.4
61 *661:46 *661:47 2.11291
62 *661:45 *661:46 1.4
63 *661:44 *661:45 2.36137
64 *661:43 *661:44 1.4
65 *661:41 *661:43 0.124289
66 *661:41 *726:SE 1.4
67 *661:39 *661:41 9.69415
68 *661:38 *728:SE 1.4
69 *661:36 *661:39 1.4
70 *661:35 *661:38 0.124283
71 *661:34 *734:SE 1.4
72 *661:33 *661:36 0.372865
73 *661:33 *661:35 1.4
74 *661:32 *661:34 1.11859
75 *661:30 *661:33 2.98292
76 *661:29 *661:32 1.4
77 *661:28 *736:SE 1.4
78 *661:27 *661:30 1.4
79 *661:26 *661:29 3.23149
80 *661:25 *661:28 1.4
81 *661:24 *661:27 0.372848
82 *661:24 *661:26 1.4
83 *661:23 *661:25 0.372866
84 *661:22 *661:24 4.22566
85 *661:22 *661:23 1.4
86 *661:21 *661:22 0.497155
87 *661:19 *661:21 1.4
88 *661:18 *732:SE 1.4
89 *661:16 *661:19 4.47439
90 *661:15 *661:18 1.4
91 *661:14 *737:SE 1.4
92 *661:13 *661:16 1.4
93 *661:12 *661:15 0.248578
94 *661:11 *661:14 1.4
95 *661:10 *661:13 3.10711
96 *661:10 *661:12 1.4
97 *661:9 *661:11 0.372866
98 *661:8 *661:10 7.58134
99 *661:8 *661:9 1.4
100 *661:7 *661:8 0.683555
101 *661:6 *661:7 1.4
102 *661:5 *661:6 1.4
103 *661:4 *661:5 0.683555
104 *661:3 *661:4 1.4
105 *661:2 *661:3 0.248578
106 *661:1 *661:2 1.4
107 *738:SE *661:1 1.4
*END

*D_NET *662 0.0495719

*CONN
*I *834:SE I *C 12.615 63.075 *L 0.00381 *D SDFFQX1
*I *835:SE I *C 20.735 80.765 *L 0.00381 *D SDFFQX1
*I *840:SE I *C 45.965 83.955 *L 0.00367 *D SDFFQXL
*I *836:SE I *C 21.895 85.985 *L 0.00367 *D SDFFQXL
*I *838:SE I *C 49.155 63.075 *L 0.00381 *D SDFFQX1
*I *843:SE I *C 70.325 83.955 *L 0.00381 *D SDFFQX1
*I *842:SE I *C 90.625 75.545 *L 0.00367 *D SDFFQXL
*I *837:SE I *C 93.525 65.105 *L 0.00367 *D SDFFQXL
*I *841:SE I *C 93.525 49.445 *L 0.00367 *D SDFFQXL
*I *839:SE I *C 89.465 36.975 *L 0.00367 *D SDFFQXL
*I *832:SE I *C 58.145 28.565 *L 0.00381 *D SDFFQX1
*I *831:SE I *C 75.835 26.535 *L 0.00381 *D SDFFQX1
*I *833:SE I *C 41.035 39.005 *L 0.00381 *D SDFFQX1
*I *829:SE I *C 27.695 26.535 *L 0.00381 *D SDFFQX1
*I *830:SE I *C 11.165 26.535 *L 0.00381 *D SDFFQX1
*I *947:Y O *C 22.75 37.0175 *L 0 *D AND3X1

*CAP
1 *662:1 2.36274e-05
2 *662:2 2.36274e-05
3 *662:3 0.000618594
4 *662:4 0.000618594
5 *662:5 0.00138438
6 *662:6 0.00160124
7 *662:7 0.000216859
8 *662:9 8.24964e-05
9 *662:10 0.00212014
10 *662:11 0.00231683
11 *662:12 0.000138001
12 *662:13 0.00027919
13 *662:15 0.000138001
14 *662:16 0.00174397
15 *662:19 2.05677e-05
16 *662:20 0.00172341
17 *662:21 0.0017869
18 *662:23 0.0017869
19 *662:24 2.04704e-05
20 *662:25 0.000648179
21 *662:26 2.04704e-05
22 *662:27 0.000648179
23 *662:29 0.00172877
24 *662:30 0.00195826
25 *662:31 0.000229494
26 *662:33 0.000840651
27 *662:35 0.00209134
28 *662:37 0.00127296
29 *662:39 2.22686e-05
30 *662:40 0.000333447
31 *662:41 0.000333447
32 *662:42 0.000935283
33 *662:43 0.000935283
34 *662:45 0.00106899
35 *662:46 0.00106899
36 *662:47 0.000696216
37 *662:48 0.000792246
38 *662:49 0.00176882
39 *662:50 9.60298e-05
40 *662:51 0.00323657
41 *662:52 8.29136e-05
42 *662:54 0.00146774
43 *662:55 8.29136e-05
44 *662:57 0.000705248
45 *662:58 7.20223e-05
46 *662:60 0.000705248
47 *662:61 7.20223e-05
48 *662:63 0.000200259
49 *662:65 0.00148764
50 *662:66 0.000201499
51 *662:67 0.00128738
52 *662:68 0.000201499
53 *662:69 0.000931935
54 *662:71 5.03749e-05
55 *662:72 0.00088156
56 *662:74 0.000458496
57 *662:75 2.86085e-05
58 *662:77 0.000458496
59 *662:78 0.00140647
60 *662:79 1.98022e-05
61 *662:81 0.00137786
62 *662:82 2.10146e-05
63 *662:85 1.21238e-06

*RES
1 *662:85 *947:Y 1.4
2 *662:84 *830:SE 1.4
3 *662:82 *662:85 0.00642841
4 *662:81 *662:84 1.4
5 *662:80 *829:SE 1.4
6 *662:79 *662:82 0.104997
7 *662:78 *662:81 7.08446
8 *662:78 *662:80 1.4
9 *662:77 *662:79 1.4
10 *662:75 *662:78 0.124289
11 *662:74 *662:77 2.2372
12 *662:73 *833:SE 1.4
13 *662:72 *662:75 1.4
14 *662:71 *662:74 1.4
15 *662:70 *662:73 1.4
16 *662:69 *662:72 4.35007
17 *662:69 *662:71 0.248575
18 *662:68 *662:70 1.4
19 *662:67 *662:69 1.4
20 *662:66 *662:68 0.994302
21 *662:65 *662:67 5.59299
22 *662:65 *662:66 1.4
23 *662:63 *662:65 0.870021
24 *662:61 *831:SE 1.4
25 *662:60 *662:63 1.4
26 *662:59 *832:SE 1.4
27 *662:58 *662:61 0.372848
28 *662:57 *662:60 3.48006
29 *662:56 *662:59 1.4
30 *662:55 *662:58 1.4
31 *662:54 *662:57 1.4
32 *662:53 *662:56 1.4
33 *662:52 *662:55 0.372865
34 *662:51 *662:54 6.463
35 *662:51 *662:53 1.4
36 *662:50 *662:52 1.4
37 *662:49 *662:51 7.95445
38 *662:48 *662:50 0.497131
39 *662:48 *662:49 1.4
40 *662:47 *662:48 3.6042
41 *662:46 *662:47 1.4
42 *662:45 *662:46 5.46847
43 *662:43 *662:45 1.4
44 *662:43 *839:SE 1.4
45 *662:42 *662:43 5.22009
46 *662:41 *662:42 1.4
47 *662:40 *662:41 1.73996
48 *662:39 *662:40 1.4
49 *662:37 *662:39 0.124288
50 *662:37 *841:SE 1.4
51 *662:35 *662:37 6.7114
52 *662:35 *837:SE 1.4
53 *662:33 *662:35 4.47424
54 *662:32 *842:SE 1.4
55 *662:31 *662:33 1.4
56 *662:30 *662:32 1.4
57 *662:30 *662:31 1.24289
58 *662:29 *662:30 8.70021
59 *662:27 *662:29 1.4
60 *662:26 *843:SE 1.4
61 *662:25 *662:27 3.72864
62 *662:24 *662:26 0.124288
63 *662:23 *662:25 1.4
64 *662:23 *662:24 1.4
65 *662:21 *662:23 9.07302
66 *662:20 *838:SE 1.4
67 *662:19 *662:21 1.4
68 *662:16 *662:20 8.94867
69 *662:16 *662:19 0.124283
70 *662:15 *836:SE 1.4
71 *662:14 *840:SE 1.4
72 *662:13 *662:16 1.4
73 *662:12 *662:15 0.870014
74 *662:11 *662:14 1.4
75 *662:11 *662:13 1.36711
76 *662:10 *662:12 1.4
77 *662:10 *662:11 10.3155
78 *662:9 *662:10 0.497132
79 *662:7 *662:9 1.4
80 *662:6 *835:SE 1.4
81 *662:6 *662:7 1.36717
82 *662:5 *662:6 7.457
83 *662:4 *662:5 1.4
84 *662:3 *662:4 3.48008
85 *662:2 *662:3 1.4
86 *662:1 *662:2 0.124283
87 *834:SE *662:1 1.4
*END

*D_NET *663 0.0505585

*CONN
*I *872:SE I *C 101.355 78.735 *L 0.00367 *D SDFFQXL
*I *873:SE I *C 94.975 83.955 *L 0.00381 *D SDFFQX1
*I *867:SE I *C 101.355 65.105 *L 0.00367 *D SDFFQXL
*I *871:SE I *C 101.355 52.635 *L 0.00367 *D SDFFQXL
*I *869:SE I *C 101.355 33.785 *L 0.00367 *D SDFFQXL
*I *862:SE I *C 63.655 31.755 *L 0.00381 *D SDFFQX1
*I *861:SE I *C 79.315 18.125 *L 0.00381 *D SDFFQX1
*I *868:SE I *C 51.475 73.515 *L 0.00367 *D SDFFQXL
*I *863:SE I *C 47.125 49.445 *L 0.00367 *D SDFFQXL
*I *870:SE I *C 55.245 85.985 *L 0.00367 *D SDFFQXL
*I *864:SE I *C 20.155 52.635 *L 0.00367 *D SDFFQXL
*I *946:Y O *C 19.56 37.0175 *L 0 *D AND3X1
*I *866:SE I *C 21.895 83.955 *L 0.00367 *D SDFFQXL
*I *865:SE I *C 18.995 65.105 *L 0.00381 *D SDFFQX1
*I *859:SE I *C 34.365 18.125 *L 0.00381 *D SDFFQX1
*I *860:SE I *C 19.285 12.905 *L 0.00381 *D SDFFQX1

*CAP
1 *663:1 1.96862e-05
2 *663:2 1.96862e-05
3 *663:3 4.24564e-05
4 *663:4 0.00046702
5 *663:5 0.0011117
6 *663:6 0.000424564
7 *663:7 0.0011117
8 *663:8 0.000334665
9 *663:9 4.58988e-05
10 *663:10 0.000334665
11 *663:11 4.58988e-05
12 *663:12 0.00100411
13 *663:15 0.0024532
14 *663:17 4.58988e-05
15 *663:18 0.00144909
16 *663:19 4.58988e-05
17 *663:20 0.0018816
18 *663:22 4.76353e-05
19 *663:23 0.00183396
20 *663:26 0.000111343
21 *663:28 0.000111343
22 *663:29 0.00145526
23 *663:30 4.76353e-05
24 *663:31 0.00140762
25 *663:32 0.001096
26 *663:33 0.00136842
27 *663:34 4.80149e-05
28 *663:35 0.001096
29 *663:36 0.00136842
30 *663:37 4.80149e-05
31 *663:38 2.18413e-05
32 *663:39 0.00116322
33 *663:41 2.18413e-05
34 *663:42 0.00116322
35 *663:44 5.03749e-05
36 *663:46 0.00214093
37 *663:47 0.00303062
38 *663:48 0.000429127
39 *663:49 0.000940067
40 *663:51 0.00296538
41 *663:52 0.00031888
42 *663:54 0.00255995
43 *663:55 0.00031888
44 *663:57 0.000937574
45 *663:58 2.36992e-05
46 *663:59 2.04704e-05
47 *663:60 0.000937574
48 *663:61 0.000258115
49 *663:62 2.04704e-05
50 *663:63 7.10977e-05
51 *663:64 0.00125047
52 *663:66 9.47969e-05
53 *663:67 0.000992351
54 *663:69 6.66809e-05
55 *663:70 2.36992e-05
56 *663:71 0.000220927
57 *663:73 6.78933e-05
58 *663:74 0.00149273
59 *663:75 0.000132556
60 *663:76 8.83706e-05
61 *663:78 1.21238e-06
62 *663:79 0.00149273
63 *663:80 0.00148311
64 *663:81 2.36274e-05
65 *663:83 2.17687e-05
66 *663:84 0.00148311
67 *663:85 2.36274e-05
68 *663:86 0.00124237
69 *663:89 0.0012206
70 *663:90 0.000389633
71 *663:91 2.11568e-05
72 *663:92 0.000389633
73 *663:93 2.11568e-05
74 *663:94 2.17687e-05
75 *663:96 2.17687e-05

*RES
1 *663:97 *860:SE 1.4
2 *663:96 *663:97 1.4
3 *663:94 *663:96 0.124289
4 *663:93 *859:SE 1.4
5 *663:92 *663:94 1.4
6 *663:91 *663:93 0.124288
7 *663:90 *663:92 2.36138
8 *663:89 *663:91 1.4
9 *663:86 *663:90 1.4
10 *663:86 *663:89 6.33855
11 *663:85 *865:SE 1.4
12 *663:84 *866:SE 1.4
13 *663:83 *663:86 0.124289
14 *663:81 *663:85 0.124283
15 *663:80 *663:84 8.20275
16 *663:79 *663:83 1.4
17 *663:78 *946:Y 1.4
18 *663:76 *663:81 1.4
19 *663:75 *663:80 1.4
20 *663:74 *663:79 8.32696
21 *663:73 *663:78 0.00642841
22 *663:72 *864:SE 1.4
23 *663:71 *663:76 0.497155
24 *663:71 *663:75 0.745732
25 *663:70 *663:74 1.4
26 *663:69 *663:73 0.353563
27 *663:68 *663:72 1.4
28 *663:67 *663:71 1.4
29 *663:66 *663:70 0.124289
30 *663:66 *663:69 1.4
31 *663:64 *663:68 1.4
32 *663:64 *663:67 5.21987
33 *663:63 *663:66 0.372866
34 *663:62 *870:SE 1.4
35 *663:61 *663:64 1.36711
36 *663:60 *663:63 1.4
37 *663:59 *663:62 0.124288
38 *663:58 *663:61 1.4
39 *663:57 *663:60 4.97131
40 *663:55 *663:59 1.4
41 *663:54 *663:58 0.124289
42 *663:54 *663:57 1.4
43 *663:53 *863:SE 1.4
44 *663:52 *663:55 1.61574
45 *663:51 *663:54 11.4346
46 *663:51 *663:53 1.4
47 *663:49 *663:52 1.4
48 *663:48 *663:51 1.86433
49 *663:47 *868:SE 1.4
50 *663:47 *663:49 5.21997
51 *663:46 *663:48 1.4
52 *663:46 *663:47 10.316
53 *663:44 *663:46 0.248575
54 *663:43 *861:SE 1.4
55 *663:42 *663:44 1.4
56 *663:41 *663:43 1.4
57 *663:39 *663:42 5.22011
58 *663:38 *663:41 0.124283
59 *663:37 *862:SE 1.4
60 *663:36 *663:39 1.4
61 *663:35 *663:38 1.4
62 *663:34 *663:37 0.248565
63 *663:33 *663:36 7.08411
64 *663:32 *663:35 6.09012
65 *663:31 *663:34 1.4
66 *663:31 *663:33 1.4
67 *663:30 *663:32 1.4
68 *663:29 *663:31 6.3387
69 *663:29 *663:30 0.248565
70 *663:28 *663:29 1.4
71 *663:26 *663:28 0.621439
72 *663:25 *869:SE 1.4
73 *663:23 *663:26 1.4
74 *663:22 *663:25 1.4
75 *663:21 *871:SE 1.4
76 *663:20 *663:23 9.56977
77 *663:20 *663:22 0.248565
78 *663:19 *663:21 1.4
79 *663:18 *663:20 1.4
80 *663:17 *663:19 0.248578
81 *663:15 *663:18 8.0787
82 *663:15 *663:17 1.4
83 *663:14 *867:SE 1.4
84 *663:12 *663:15 5.34424
85 *663:11 *663:14 1.4
86 *663:10 *873:SE 1.4
87 *663:9 *663:12 1.4
88 *663:9 *663:11 0.248578
89 *663:8 *663:10 2.11281
90 *663:7 *663:9 1.4
91 *663:6 *663:8 1.4
92 *663:5 *663:7 5.96565
93 *663:4 *663:6 2.48577
94 *663:4 *663:5 1.4
95 *663:3 *663:4 0.248578
96 *663:2 *663:3 1.4
97 *663:1 *663:2 0.124283
98 *872:SE *663:1 1.4
*END

*D_NET *664 0.0506751

*CONN
*I *752:SE I *C 101.645 80.765 *L 0.00381 *D SDFFQX1
*I *753:SE I *C 99.905 85.985 *L 0.00381 *D SDFFQX1
*I *751:SE I *C 93.815 59.885 *L 0.00381 *D SDFFQX1
*I *747:SE I *C 85.985 59.885 *L 0.00381 *D SDFFQX1
*I *749:SE I *C 93.525 44.225 *L 0.00381 *D SDFFQX1
*I *743:SE I *C 49.155 57.855 *L 0.00381 *D SDFFQX1
*I *745:SE I *C 30.595 65.105 *L 0.00381 *D SDFFQX1
*I *744:SE I *C 11.165 63.075 *L 0.00381 *D SDFFQX1
*I *746:SE I *C 11.165 89.175 *L 0.00381 *D SDFFQX1
*I *942:Y O *C 14.355 33.495 *L 0 *D AND2X1
*I *750:SE I *C 40.165 91.205 *L 0.00381 *D SDFFQX1
*I *748:SE I *C 47.415 89.175 *L 0.00381 *D SDFFQX1
*I *740:SE I *C 17.255 18.125 *L 0.00381 *D SDFFQX1
*I *739:SE I *C 42.195 16.095 *L 0.00381 *D SDFFQX1
*I *742:SE I *C 53.795 18.125 *L 0.00381 *D SDFFQX1
*I *741:SE I *C 63.075 18.125 *L 0.00381 *D SDFFQX1

*CAP
1 *664:1 1.96862e-05
2 *664:2 1.96862e-05
3 *664:3 0.000127369
4 *664:4 0.000127369
5 *664:5 1.96862e-05
6 *664:6 0.000374038
7 *664:7 0.000354351
8 *664:8 0.000339651
9 *664:10 0.000339651
10 *664:11 0.00165015
11 *664:12 0.00165015
12 *664:13 0.000114747
13 *664:14 0.000734381
14 *664:15 0.0012312
15 *664:17 0.00393383
16 *664:18 0.0012312
17 *664:21 0.00337074
18 *664:22 2.38177e-05
19 *664:24 0.000453372
20 *664:25 5.6541e-05
21 *664:26 2.38177e-05
22 *664:27 0.000453372
23 *664:28 0.000176311
24 *664:30 0.00186585
25 *664:31 0.000176311
26 *664:33 0.00344182
27 *664:36 0.00157596
28 *664:38 0.00183405
29 *664:39 0.000165392
30 *664:40 0.00183405
31 *664:41 0.00242262
32 *664:42 0.00224235
33 *664:44 0.00225723
34 *664:45 0.00224235
35 *664:46 1.97144e-05
36 *664:47 0.000260692
37 *664:48 0.000164542
38 *664:49 1.97144e-05
39 *664:50 0.000260692
40 *664:51 0.000123406
41 *664:52 4.11354e-05
42 *664:54 0.000140636
43 *664:55 5.07618e-05
44 *664:56 0.000685284
45 *664:57 0.000140636
46 *664:58 5.07618e-05
47 *664:59 0.000685284
48 *664:60 0.000236992
49 *664:63 2.05677e-05
50 *664:64 0.000236992
51 *664:66 2.05677e-05
52 *664:67 0.00116165
53 *664:69 0.00116165
54 *664:70 0.00211274
55 *664:71 0.00211274
56 *664:73 0.000169255
57 *664:75 2.11568e-05
58 *664:76 0.000148098
59 *664:77 0.000997787
60 *664:78 2.56424e-05
61 *664:79 0.00180516
62 *664:80 2.56424e-05
63 *664:81 0.000807377
64 *664:82 2.11687e-05
65 *664:84 2.11687e-05
66 *664:85 2.11687e-05
67 *664:87 2.11687e-05

*RES
1 *664:87 *741:SE 1.4
2 *664:85 *742:SE 1.4
3 *664:84 *664:87 0.124289
4 *664:83 *739:SE 1.4
5 *664:82 *664:85 0.124289
6 *664:81 *664:84 1.4
7 *664:80 *664:83 1.4
8 *664:79 *664:82 1.4
9 *664:79 *664:81 3.97705
10 *664:78 *664:80 0.124283
11 *664:77 *664:79 4.84702
12 *664:76 *664:78 1.4
13 *664:75 *664:77 1.4
14 *664:73 *664:76 0.870017
15 *664:73 *664:75 0.124288
16 *664:72 *740:SE 1.4
17 *664:71 *664:73 1.4
18 *664:70 *664:72 1.4
19 *664:70 *664:71 10.8128
20 *664:69 *664:70 1.4
21 *664:67 *664:69 6.587
22 *664:66 *748:SE 1.4
23 *664:64 *664:67 1.4
24 *664:63 *664:66 0.124283
25 *664:62 *750:SE 1.4
26 *664:60 *664:64 1.24289
27 *664:59 *664:63 1.4
28 *664:58 *664:62 1.4
29 *664:57 *942:Y 1.4
30 *664:57 *664:60 1.4
31 *664:56 *664:59 3.35564
32 *664:55 *664:58 0.248566
33 *664:54 *664:57 0.745696
34 *664:52 *664:56 1.4
35 *664:51 *664:55 1.4
36 *664:50 *664:54 1.4
37 *664:49 *746:SE 1.4
38 *664:48 *664:52 0.248565
39 *664:48 *664:51 0.745696
40 *664:47 *664:50 1.36718
41 *664:46 *664:49 0.124288
42 *664:45 *664:48 1.4
43 *664:44 *664:47 1.4
44 *664:42 *664:46 1.4
45 *664:42 *664:45 12.1797
46 *664:41 *664:44 11.9311
47 *664:41 *744:SE 1.4
48 *664:40 *664:42 1.4
49 *664:39 *664:41 0.869979
50 *664:38 *664:40 10.4399
51 *664:36 *664:39 1.4
52 *664:36 *664:38 1.4
53 *664:35 *745:SE 1.4
54 *664:33 *664:36 8.32725
55 *664:33 *664:35 1.4
56 *664:31 *743:SE 1.4
57 *664:30 *664:33 8.20267
58 *664:29 *749:SE 1.4
59 *664:28 *664:31 0.870021
60 *664:27 *664:30 1.4
61 *664:26 *664:29 1.4
62 *664:25 *664:28 1.4
63 *664:24 *664:27 2.2372
64 *664:22 *664:26 0.124283
65 *664:21 *664:25 0.248566
66 *664:21 *664:24 1.4
67 *664:20 *747:SE 1.4
68 *664:18 *664:22 1.4
69 *664:17 *664:21 15.536
70 *664:17 *664:20 1.4
71 *664:16 *751:SE 1.4
72 *664:15 *664:18 6.71146
73 *664:14 *664:17 3.3558
74 *664:14 *664:16 1.4
75 *664:14 *664:15 1.4
76 *664:13 *664:14 0.621444
77 *664:12 *664:13 1.4
78 *664:11 *664:12 8.94847
79 *664:10 *664:11 1.4
80 *664:8 *664:10 1.98862
81 *664:7 *753:SE 1.4
82 *664:6 *664:8 1.4
83 *664:6 *664:7 2.23709
84 *664:5 *664:6 0.124283
85 *664:4 *664:5 1.4
86 *664:3 *664:4 0.745732
87 *664:2 *664:3 1.4
88 *664:1 *664:2 0.124283
89 *752:SE *664:1 1.4
*END

*D_NET *665 0.047464

*CONN
*I *918:SE I *C 71.485 96.425 *L 0.00367 *D SDFFQXL
*I *913:SE I *C 59.595 94.395 *L 0.00367 *D SDFFQXL
*I *917:SE I *C 69.745 85.985 *L 0.00367 *D SDFFQXL
*I *912:SE I *C 66.845 59.885 *L 0.00367 *D SDFFQXL
*I *915:SE I *C 61.915 75.545 *L 0.00367 *D SDFFQXL
*I *916:SE I *C 74.095 57.855 *L 0.00367 *D SDFFQXL
*I *908:SE I *C 66.265 49.445 *L 0.00367 *D SDFFQXL
*I *914:SE I *C 74.095 44.225 *L 0.00367 *D SDFFQXL
*I *934:Y O *C 41.615 36.395 *L 0 *D OR2X1
*I *905:SE I *C 10.875 12.905 *L 0.00367 *D SDFFQXL
*I *909:SE I *C 10.875 52.635 *L 0.00367 *D SDFFQXL
*I *910:SE I *C 10.875 70.325 *L 0.00367 *D SDFFQXL
*I *904:SE I *C 43.645 7.685 *L 0.00367 *D SDFFQXL
*I *907:SE I *C 64.815 5.655 *L 0.00367 *D SDFFQXL
*I *911:SE I *C 11.165 80.765 *L 0.00367 *D SDFFQXL
*I *906:SE I *C 73.225 5.655 *L 0.00367 *D SDFFQXL

*CAP
1 *665:1 0.000143293
2 *665:2 0.000143293
3 *665:3 9.73057e-05
4 *665:4 0.000997384
5 *665:5 0.000593642
6 *665:6 0.000900078
7 *665:7 0.0013887
8 *665:9 4.86529e-05
9 *665:10 0.000795058
10 *665:12 4.86529e-05
11 *665:13 0.000328765
12 *665:15 0.000328765
13 *665:17 0.00129904
14 *665:18 2.40564e-05
15 *665:19 0.00139527
16 *665:20 0.000465751
17 *665:22 0.000120282
18 *665:23 0.000465751
19 *665:25 2.73971e-05
20 *665:28 0.000684927
21 *665:30 0.00065753
22 *665:31 0.000793298
23 *665:32 4.81128e-05
24 *665:33 0.000793298
25 *665:34 4.81128e-05
26 *665:35 5.52757e-05
27 *665:37 8.29136e-05
28 *665:38 0.000360112
29 *665:39 2.76379e-05
30 *665:40 0.000360112
31 *665:41 4.80149e-05
32 *665:42 0.000746223
33 *665:43 4.80149e-05
34 *665:44 0.000718585
35 *665:45 2.76379e-05
36 *665:47 2.40074e-05
37 *665:48 0.000576179
38 *665:49 2.40074e-05
39 *665:50 0.000576179
40 *665:52 0.00218439
41 *665:53 0.00218439
42 *665:54 0.00010075
43 *665:55 0.00195754
44 *665:56 0.000200259
45 *665:57 0.00185679
46 *665:58 0.000200259
47 *665:59 0.00271986
48 *665:61 2.56424e-05
49 *665:62 0.00269422
50 *665:64 0.000359666
51 *665:67 0.000359666
52 *665:70 0.00185398
53 *665:71 0.00307805
54 *665:72 0.00182834
55 *665:73 2.56424e-05
56 *665:74 0.00451932
57 *665:76 0.000148181
58 *665:77 2.11568e-05
59 *665:78 0.0022586
60 *665:80 0.000169349
61 *665:81 2.11568e-05
62 *665:82 0.000817326
63 *665:84 0.000731686
64 *665:85 2.11687e-05
65 *665:87 2.06241e-05
66 *665:88 0.000731686
67 *665:90 2.06241e-05
68 *665:91 2.11687e-05
69 *665:93 2.11687e-05

*RES
1 *665:93 *906:SE 1.4
2 *665:92 *911:SE 1.4
3 *665:91 *665:93 0.124289
4 *665:90 *665:92 1.4
5 *665:88 *665:91 1.4
6 *665:87 *665:90 0.124283
7 *665:85 *907:SE 1.4
8 *665:84 *665:88 3.6042
9 *665:82 *665:87 1.4
10 *665:81 *904:SE 1.4
11 *665:80 *665:85 0.124289
12 *665:80 *665:84 1.4
13 *665:78 *910:SE 1.4
14 *665:78 *665:82 4.47422
15 *665:77 *665:81 0.124288
16 *665:76 *665:80 0.870021
17 *665:74 *909:SE 1.4
18 *665:74 *665:78 7.58124
19 *665:73 *665:77 1.4
20 *665:72 *665:76 1.4
21 *665:71 *905:SE 1.4
22 *665:71 *665:74 17.0268
23 *665:70 *665:73 0.124283
24 *665:70 *665:72 8.94835
25 *665:68 *665:71 1.4
26 *665:67 *665:70 1.4
27 *665:66 *934:Y 1.4
28 *665:65 *665:68 1.4
29 *665:64 *665:67 2.1129
30 *665:63 *665:66 1.4
31 *665:62 *665:65 1.4
32 *665:61 *665:64 1.4
33 *665:60 *665:63 1.4
34 *665:59 *665:62 14.0443
35 *665:59 *665:61 0.124283
36 *665:58 *665:60 1.4
37 *665:57 *665:59 1.4
38 *665:56 *665:58 0.870021
39 *665:55 *665:57 10.0673
40 *665:55 *665:56 1.4
41 *665:54 *665:55 0.497151
42 *665:53 *665:54 1.4
43 *665:52 *665:53 9.6945
44 *665:50 *665:52 1.4
45 *665:49 *914:SE 1.4
46 *665:48 *665:50 2.98278
47 *665:47 *665:49 0.124283
48 *665:45 *665:48 1.4
49 *665:44 *665:47 1.4
50 *665:43 *908:SE 1.4
51 *665:42 *665:45 0.124288
52 *665:42 *665:44 3.23149
53 *665:41 *665:43 0.248565
54 *665:40 *665:42 1.4
55 *665:39 *665:41 1.4
56 *665:38 *665:40 1.86424
57 *665:37 *665:39 0.124288
58 *665:37 *665:38 1.4
59 *665:35 *665:37 0.248576
60 *665:34 *916:SE 1.4
61 *665:33 *665:35 1.4
62 *665:32 *665:34 0.248578
63 *665:31 *665:33 4.10146
64 *665:30 *665:32 1.4
65 *665:28 *665:31 1.4
66 *665:28 *665:30 2.98293
67 *665:26 *915:SE 1.4
68 *665:25 *665:28 0.124289
69 *665:24 *912:SE 1.4
70 *665:23 *665:26 1.4
71 *665:22 *665:25 1.4
72 *665:21 *665:24 1.4
73 *665:20 *665:23 2.11291
74 *665:19 *665:22 0.621444
75 *665:19 *665:21 1.4
76 *665:18 *665:20 1.4
77 *665:17 *665:19 6.5873
78 *665:17 *665:18 0.124289
79 *665:15 *665:17 1.4
80 *665:14 *917:SE 1.4
81 *665:13 *665:15 1.49146
82 *665:12 *665:14 1.4
83 *665:10 *665:13 1.4
84 *665:9 *665:12 0.248578
85 *665:8 *913:SE 1.4
86 *665:7 *665:10 4.59866
87 *665:7 *665:9 1.4
88 *665:6 *665:8 1.4
89 *665:5 *665:7 3.60435
90 *665:4 *665:6 4.59868
91 *665:4 *665:5 1.4
92 *665:3 *665:4 0.497155
93 *665:2 *665:3 1.4
94 *665:1 *665:2 0.870015
95 *918:SE *665:1 1.4
*END

*D_NET *666 0.0547699

*CONN
*I *768:SE I *C 98.455 96.425 *L 0.00381 *D SDFFQX1
*I *767:SE I *C 101.355 91.205 *L 0.00381 *D SDFFQX1
*I *762:SE I *C 98.455 70.325 *L 0.00381 *D SDFFQX1
*I *766:SE I *C 101.645 49.445 *L 0.00381 *D SDFFQX1
*I *758:SE I *C 54.375 44.225 *L 0.00381 *D SDFFQX1
*I *764:SE I *C 101.355 42.195 *L 0.00381 *D SDFFQX1
*I *756:SE I *C 78.155 10.875 *L 0.00381 *D SDFFQX1
*I *759:SE I *C 21.315 59.885 *L 0.00381 *D SDFFQX1
*I *757:SE I *C 52.055 7.685 *L 0.00381 *D SDFFQX1
*I *761:SE I *C 29.435 85.985 *L 0.00381 *D SDFFQX1
*I *950:Y O *C 21.01 42.2375 *L 0 *D AND3X1
*I *754:SE I *C 41.615 5.655 *L 0.00381 *D SDFFQX1
*I *755:SE I *C 22.765 5.655 *L 0.00381 *D SDFFQX1
*I *760:SE I *C 22.185 96.425 *L 0.00381 *D SDFFQX1
*I *765:SE I *C 38.425 96.425 *L 0.00381 *D SDFFQX1
*I *763:SE I *C 48.285 91.205 *L 0.00381 *D SDFFQX1

*CAP
1 *666:2 2.12282e-05
2 *666:3 2.12282e-05
3 *666:4 0.000354351
4 *666:5 0.000354351
5 *666:6 0.000212282
6 *666:7 0.000191054
7 *666:8 2.12282e-05
8 *666:10 0.00138977
9 *666:12 0.00138977
10 *666:14 0.000128433
11 *666:15 0.00171037
12 *666:17 0.00158194
13 *666:19 0.000190541
14 *666:21 0.000190541
15 *666:22 8.90746e-05
16 *666:23 0.00048991
17 *666:24 7.1453e-05
18 *666:25 0.000556716
19 *666:26 7.1453e-05
20 *666:27 0.00412599
21 *666:28 0.000155881
22 *666:30 0.00434758
23 *666:31 4.76353e-05
24 *666:34 0.000221588
25 *666:35 4.76353e-05
26 *666:37 0.00273129
27 *666:39 2.51874e-05
28 *666:40 0.00270611
29 *666:42 0.0029515
30 *666:43 0.0022966
31 *666:44 0.0029515
32 *666:45 0.00227095
33 *666:46 2.56424e-05
34 *666:47 0.00124727
35 *666:48 0.000187515
36 *666:49 2.11687e-05
37 *666:50 0.000211568
38 *666:51 0.00327004
39 *666:52 0.000187515
40 *666:53 2.11687e-05
41 *666:54 0.00033851
42 *666:55 0.00202277
43 *666:57 2.36992e-05
44 *666:59 2.56424e-05
45 *666:60 0.000126941
46 *666:61 0.000632178
47 *666:63 2.36992e-05
48 *666:64 2.56424e-05
49 *666:65 0.000897483
50 *666:66 0.000632178
51 *666:68 3.63714e-06
52 *666:70 0.00251969
53 *666:71 0.000699302
54 *666:72 4.84952e-06
55 *666:74 2.11568e-05
56 *666:75 0.00162221
57 *666:76 0.000719869
58 *666:78 1.21238e-06
59 *666:79 2.11568e-05
60 *666:80 2.0507e-05
61 *666:81 2.05677e-05
62 *666:82 0.000570306
63 *666:85 2.0507e-05
64 *666:86 0.000786808
65 *666:87 0.000570306
66 *666:89 0.00152285
67 *666:90 3.94288e-05
68 *666:91 0.000736046
69 *666:92 2.05677e-05
70 *666:93 3.94288e-05
71 *666:94 0.000349651
72 *666:95 2.05677e-05
73 *666:97 0.000349651
74 *666:99 0.000126905
75 *666:100 0.000126905

*RES
1 *666:101 *763:SE 1.4
2 *666:100 *666:101 1.4
3 *666:99 *666:100 0.621414
4 *666:97 *666:99 1.4
5 *666:95 *765:SE 1.4
6 *666:94 *666:97 2.11281
7 *666:93 *760:SE 1.4
8 *666:92 *666:95 0.124283
9 *666:91 *666:94 1.4
10 *666:90 *666:93 0.248576
11 *666:89 *666:92 1.4
12 *666:89 *666:91 3.6042
13 *666:87 *666:90 1.4
14 *666:86 *666:89 3.85277
15 *666:85 *755:SE 1.4
16 *666:82 *666:87 3.10707
17 *666:81 *666:86 1.4
18 *666:80 *666:85 0.124283
19 *666:79 *754:SE 1.4
20 *666:78 *950:Y 1.4
21 *666:76 *666:82 1.4
22 *666:76 *666:81 0.124283
23 *666:75 *666:80 1.4
24 *666:74 *666:79 0.124288
25 *666:72 *666:78 0.00642841
26 *666:71 *761:SE 1.4
27 *666:71 *666:76 4.22561
28 *666:70 *666:75 8.07844
29 *666:70 *666:74 1.4
30 *666:69 *757:SE 1.4
31 *666:68 *666:72 0.0192852
32 *666:66 *666:71 1.4
33 *666:65 *666:70 4.34989
34 *666:64 *666:69 1.4
35 *666:63 *666:68 1.4
36 *666:62 *759:SE 1.4
37 *666:61 *666:66 3.47992
38 *666:60 *666:65 1.4
39 *666:59 *666:64 0.124283
40 *666:57 *666:63 0.124289
41 *666:56 *666:62 1.4
42 *666:55 *666:61 1.4
43 *666:54 *666:60 0.745729
44 *666:54 *666:59 1.4
45 *666:53 *756:SE 1.4
46 *666:52 *666:57 1.4
47 *666:51 *666:56 1.4
48 *666:51 *666:55 11.1856
49 *666:50 *666:54 1.24288
50 *666:49 *666:53 0.124289
51 *666:48 *666:52 0.994261
52 *666:47 *666:51 6.58698
53 *666:46 *666:50 1.4
54 *666:45 *666:49 1.4
55 *666:44 *666:48 1.4
56 *666:44 *666:47 1.4
57 *666:43 *666:46 0.124283
58 *666:43 *666:45 11.1854
59 *666:42 *666:44 13.1746
60 *666:40 *666:43 1.4
61 *666:39 *666:42 1.4
62 *666:38 *764:SE 1.4
63 *666:37 *666:40 14.4174
64 *666:37 *666:39 0.124288
65 *666:35 *666:38 1.4
66 *666:34 *666:37 1.4
67 *666:33 *758:SE 1.4
68 *666:31 *666:35 0.248565
69 *666:30 *666:34 0.994306
70 *666:30 *666:33 1.4
71 *666:29 *766:SE 1.4
72 *666:28 *666:31 1.4
73 *666:27 *666:30 19.8857
74 *666:26 *666:29 1.4
75 *666:25 *666:28 0.870015
76 *666:25 *666:27 1.4
77 *666:24 *666:26 0.372848
78 *666:23 *666:25 2.23718
79 *666:23 *666:24 1.4
80 *666:22 *666:23 0.497151
81 *666:21 *666:22 1.4
82 *666:19 *666:21 0.994261
83 *666:18 *762:SE 1.4
84 *666:17 *666:19 1.4
85 *666:16 *666:18 1.4
86 *666:15 *666:17 8.45137
87 *666:15 *666:16 1.4
88 *666:14 *666:15 0.683565
89 *666:13 *666:14 1.4
90 *666:12 *666:13 1.4
91 *666:10 *666:12 8.26484
92 *666:9 *767:SE 1.4
93 *666:8 *666:10 1.4
94 *666:7 *666:9 1.4
95 *666:6 *666:8 0.124289
96 *666:6 *666:7 1.1186
97 *666:5 *666:6 1.4
98 *666:4 *666:5 2.23709
99 *666:3 *666:4 1.4
100 *666:2 *666:3 0.124289
101 *666:1 *666:2 1.4
102 *768:SE *666:1 1.4
*END

*D_NET *667 0.0542817

*CONN
*I *885:SE I *C 48.575 83.955 *L 0.00367 *D SDFFQXL
*I *883:SE I *C 44.225 94.395 *L 0.00367 *D SDFFQXL
*I *881:SE I *C 17.545 91.205 *L 0.00367 *D SDFFQXL
*I *880:SE I *C 18.705 70.325 *L 0.00367 *D SDFFQXL
*I *879:SE I *C 18.705 47.415 *L 0.00367 *D SDFFQXL
*I *878:SE I *C 54.955 39.005 *L 0.00367 *D SDFFQXL
*I *935:Y O *C 46.255 36.395 *L 0 *D OR2X1
*I *884:SE I *C 90.045 39.005 *L 0.00367 *D SDFFQXL
*I *877:SE I *C 51.765 10.875 *L 0.00367 *D SDFFQXL
*I *886:SE I *C 91.495 57.855 *L 0.00367 *D SDFFQXL
*I *874:SE I *C 43.935 10.875 *L 0.00381 *D SDFFQX1
*I *882:SE I *C 93.525 73.515 *L 0.00367 *D SDFFQXL
*I *876:SE I *C 81.055 12.905 *L 0.00367 *D SDFFQXL
*I *875:SE I *C 19.575 7.685 *L 0.00381 *D SDFFQX1
*I *888:SE I *C 92.655 94.395 *L 0.00367 *D SDFFQXL
*I *887:SE I *C 95.555 89.175 *L 0.00367 *D SDFFQXL

*CAP
1 *667:1 4.11354e-05
2 *667:2 4.11354e-05
3 *667:3 0.000253809
4 *667:4 0.000253809
5 *667:5 0.000493625
6 *667:6 0.000493625
7 *667:7 0.000126905
8 *667:8 0.00232162
9 *667:9 0.000205677
10 *667:10 0.00219472
11 *667:11 0.000205677
12 *667:12 1.97144e-05
13 *667:14 0.00142862
14 *667:16 0.00140891
15 *667:17 8.83706e-05
16 *667:18 8.83706e-05
17 *667:19 0.000118137
18 *667:20 0.0019816
19 *667:22 0.00186346
20 *667:24 0.00256401
21 *667:27 0.00256401
22 *667:29 0.000730436
23 *667:31 0.000730436
24 *667:32 2.86085e-05
25 *667:33 0.000877642
26 *667:34 0.0040385
27 *667:35 0.000226687
28 *667:36 0.00318946
29 *667:38 0.00221042
30 *667:40 0.00142187
31 *667:43 0.00202605
32 *667:45 0.00142187
33 *667:46 0.000487205
34 *667:47 4.23137e-05
35 *667:48 0.000114747
36 *667:49 0.00306943
37 *667:50 0.000205139
38 *667:51 0.000275393
39 *667:52 0.00258223
40 *667:53 2.11568e-05
41 *667:54 0.00229371
42 *667:55 0.000160646
43 *667:56 4.67028e-05
44 *667:57 0.000134667
45 *667:58 2.11568e-05
46 *667:59 2.11568e-05
47 *667:60 0.00208857
48 *667:61 0.00130768
49 *667:62 4.67028e-05
50 *667:63 0.000134667
51 *667:65 2.11568e-05
52 *667:66 0.00020507
53 *667:67 0.00237215
54 *667:69 6.55238e-05
55 *667:71 0.00020507
56 *667:72 0.0011629
57 *667:74 6.55238e-05
58 *667:75 2.17687e-05
59 *667:76 9.84309e-05
60 *667:77 6.36846e-05
61 *667:80 2.17687e-05
62 *667:81 0.000148597
63 *667:82 6.36846e-05
64 *667:86 0.000148597
65 *667:87 0.00041341
66 *667:89 3.93724e-05
67 *667:90 0.00041341
68 *667:91 3.93724e-05

*RES
1 *667:91 *887:SE 1.4
2 *667:90 *888:SE 1.4
3 *667:89 *667:91 0.248565
4 *667:87 *667:90 2.60994
5 *667:86 *667:89 1.4
6 *667:85 *875:SE 1.4
7 *667:82 *667:87 1.4
8 *667:81 *667:86 0.870021
9 *667:80 *667:85 1.4
10 *667:79 *876:SE 1.4
11 *667:78 *882:SE 1.4
12 *667:77 *667:82 0.372866
13 *667:76 *667:81 1.4
14 *667:75 *667:80 0.124289
15 *667:74 *667:79 1.4
16 *667:73 *667:78 1.4
17 *667:72 *667:77 1.4
18 *667:72 *667:76 0.621413
19 *667:71 *667:75 1.4
20 *667:69 *667:74 0.372849
21 *667:67 *667:73 1.4
22 *667:67 *667:72 6.33845
23 *667:66 *667:71 1.24283
24 *667:65 *874:SE 1.4
25 *667:63 *667:69 1.4
26 *667:62 *886:SE 1.4
27 *667:61 *667:67 6.95994
28 *667:60 *667:66 1.4
29 *667:59 *667:65 0.124288
30 *667:58 *877:SE 1.4
31 *667:57 *667:63 0.745731
32 *667:56 *667:62 0.248569
33 *667:55 *667:61 1.4
34 *667:54 *667:60 10.5642
35 *667:54 *667:59 1.4
36 *667:53 *667:58 0.124288
37 *667:52 *667:57 1.4
38 *667:51 *667:56 1.4
39 *667:51 *667:55 0.870021
40 *667:50 *667:54 0.994261
41 *667:49 *667:53 1.4
42 *667:49 *667:52 12.9254
43 *667:48 *667:51 0.621444
44 *667:47 *667:50 1.4
45 *667:46 *667:49 2.36137
46 *667:45 *667:48 1.4
47 *667:43 *667:47 0.248576
48 *667:43 *667:46 1.4
49 *667:40 *667:45 7.83007
50 *667:39 *884:SE 1.4
51 *667:38 *667:43 10.8131
52 *667:38 *935:Y 1.4
53 *667:37 *878:SE 1.4
54 *667:36 *667:40 1.4
55 *667:36 *667:39 1.4
56 *667:35 *667:38 1.11859
57 *667:34 *667:37 1.4
58 *667:34 *667:36 15.0387
59 *667:33 *667:35 1.4
60 *667:33 *667:34 3.72866
61 *667:32 *667:33 0.124289
62 *667:31 *667:32 1.4
63 *667:29 *667:31 3.60434
64 *667:28 *879:SE 1.4
65 *667:27 *667:29 1.4
66 *667:25 *667:28 1.4
67 *667:24 *667:27 11.6831
68 *667:23 *880:SE 1.4
69 *667:22 *667:25 1.4
70 *667:22 *667:24 1.4
71 *667:21 *667:23 1.4
72 *667:20 *667:22 9.81833
73 *667:20 *667:21 1.4
74 *667:19 *667:20 0.621413
75 *667:18 *667:19 1.4
76 *667:17 *667:18 0.497155
77 *667:16 *667:17 1.4
78 *667:14 *667:16 8.32717
79 *667:14 *881:SE 1.4
80 *667:12 *667:14 0.124288
81 *667:11 *883:SE 1.4
82 *667:10 *667:12 1.4
83 *667:9 *667:11 1.24283
84 *667:8 *667:10 11.434
85 *667:8 *667:9 1.4
86 *667:7 *667:8 0.621414
87 *667:6 *667:7 1.4
88 *667:5 *667:6 2.98278
89 *667:4 *667:5 1.4
90 *667:3 *667:4 1.24283
91 *667:2 *667:3 1.4
92 *667:1 *667:2 0.248565
93 *885:SE *667:1 1.4
*END

*D_NET *668 0.040812

*CONN
*I *857:SE I *C 82.215 80.765 *L 0.00367 *D SDFFQXL
*I *852:SE I *C 82.215 68.295 *L 0.00367 *D SDFFQXL
*I *858:SE I *C 70.035 78.735 *L 0.00367 *D SDFFQXL
*I *855:SE I *C 60.465 80.765 *L 0.00367 *D SDFFQXL
*I *853:SE I *C 52.345 65.105 *L 0.00367 *D SDFFQXL
*I *848:SE I *C 52.925 47.415 *L 0.00367 *D SDFFQXL
*I *936:Y O *C 44.515 36.395 *L 0 *D OR2X1
*I *856:SE I *C 74.385 47.415 *L 0.00367 *D SDFFQXL
*I *847:SE I *C 45.675 23.345 *L 0.00367 *D SDFFQXL
*I *854:SE I *C 75.255 36.975 *L 0.00367 *D SDFFQXL
*I *844:SE I *C 28.565 23.345 *L 0.00381 *D SDFFQX1
*I *846:SE I *C 74.965 31.755 *L 0.00367 *D SDFFQXL
*I *845:SE I *C 10.875 28.565 *L 0.00367 *D SDFFQXL
*I *849:SE I *C 10.585 54.665 *L 0.00367 *D SDFFQXL
*I *851:SE I *C 13.195 75.545 *L 0.00367 *D SDFFQXL
*I *850:SE I *C 14.935 68.295 *L 0.00367 *D SDFFQXL

*CAP
1 *668:2 2.12282e-05
2 *668:3 2.12282e-05
3 *668:4 0.000118117
4 *668:5 0.000118117
5 *668:6 0.000979884
6 *668:7 2.12282e-05
7 *668:8 0.00171277
8 *668:9 0.000854839
9 *668:10 2.04704e-05
10 *668:11 0.000802772
11 *668:12 0.000854839
12 *668:13 2.04704e-05
13 *668:14 0.000122823
14 *668:15 4.86529e-05
15 *668:18 0.000122823
16 *668:19 0.00104952
17 *668:20 4.86529e-05
18 *668:21 0.00104952
19 *668:22 4.86529e-05
20 *668:23 0.000767119
21 *668:25 0.000767119
22 *668:27 9.62255e-05
23 *668:28 0.00151484
24 *668:30 0.00141862
25 *668:31 0.000798611
26 *668:32 5.52757e-05
27 *668:33 0.000743335
28 *668:34 4.80149e-05
29 *668:35 0.00088156
30 *668:36 7.20223e-05
31 *668:37 0.00088156
32 *668:39 2.40074e-05
33 *668:40 2.86085e-05
34 *668:41 0.0020452
35 *668:42 2.86085e-05
36 *668:43 0.0020452
37 *668:44 0.000125937
38 *668:45 0.000816253
39 *668:46 0.00122108
40 *668:47 2.40074e-05
41 *668:48 0.000792246
42 *668:50 0.00109514
43 *668:52 8.29136e-05
44 *668:53 0.000102569
45 *668:54 8.29136e-05
46 *668:55 0.000102569
47 *668:57 4.80149e-05
48 *668:59 0.00141033
49 *668:60 0.000480149
50 *668:62 0.00141033
51 *668:64 0.000432134
52 *668:65 0.000389896
53 *668:66 2.76379e-05
54 *668:67 0.000389896
55 *668:69 2.76379e-05
56 *668:70 0.00148738
57 *668:73 0.00151108
58 *668:76 2.34394e-05
59 *668:77 2.36992e-05
60 *668:78 2.34394e-05
61 *668:79 0.00213458
62 *668:81 0.00319781
63 *668:82 0.00106323
64 *668:84 0.000198834
65 *668:85 0.000198834
66 *668:86 9.45097e-05
67 *668:87 0.00063794
68 *668:88 0.000543431
69 *668:89 0.000132556
70 *668:91 0.000132556
71 *668:92 4.72548e-05
72 *668:93 4.72548e-05

*RES
1 *668:93 *850:SE 1.4
2 *668:92 *668:93 0.248565
3 *668:91 *668:92 1.4
4 *668:89 *668:91 0.745732
5 *668:88 *851:SE 1.4
6 *668:87 *668:89 1.4
7 *668:87 *668:88 2.8585
8 *668:86 *668:87 0.497131
9 *668:85 *668:86 1.4
10 *668:84 *668:85 1.1186
11 *668:82 *668:84 1.4
12 *668:81 *849:SE 1.4
13 *668:81 *668:82 5.59272
14 *668:79 *668:81 11.3097
15 *668:78 *845:SE 1.4
16 *668:77 *668:79 1.4
17 *668:76 *668:78 0.124283
18 *668:73 *668:77 0.124289
19 *668:73 *668:76 1.4
20 *668:72 *846:SE 1.4
21 *668:71 *844:SE 1.4
22 *668:70 *668:73 7.58161
23 *668:69 *668:72 1.4
24 *668:68 *668:71 1.4
25 *668:67 *668:70 1.4
26 *668:66 *668:69 0.124288
27 *668:65 *668:68 1.4
28 *668:65 *668:67 2.1129
29 *668:64 *668:66 1.4
30 *668:62 *668:65 1.4
31 *668:60 *668:64 2.23709
32 *668:60 *854:SE 1.4
33 *668:59 *668:62 6.83555
34 *668:58 *847:SE 1.4
35 *668:57 *668:60 0.248565
36 *668:56 *668:59 1.4
37 *668:55 *668:58 1.4
38 *668:54 *668:57 1.4
39 *668:53 *668:56 1.4
40 *668:53 *668:55 0.497131
41 *668:52 *668:54 0.372865
42 *668:50 *668:53 1.4
43 *668:48 *668:52 1.4
44 *668:47 *856:SE 1.4
45 *668:46 *668:50 5.59295
46 *668:46 *936:Y 1.4
47 *668:45 *668:48 4.10133
48 *668:45 *668:47 0.124283
49 *668:44 *668:46 0.621439
50 *668:43 *668:45 1.4
51 *668:42 *668:44 1.4
52 *668:41 *668:43 9.19733
53 *668:40 *668:42 0.124289
54 *668:39 *668:41 1.4
55 *668:37 *668:40 1.4
56 *668:36 *668:39 0.124283
57 *668:36 *848:SE 1.4
58 *668:35 *668:37 4.35007
59 *668:34 *668:36 0.248565
60 *668:33 *668:35 1.4
61 *668:32 *668:34 1.4
62 *668:31 *668:33 3.23151
63 *668:31 *668:32 0.248576
64 *668:30 *668:31 1.4
65 *668:28 *668:30 7.33295
66 *668:28 *853:SE 1.4
67 *668:27 *668:28 0.497155
68 *668:25 *668:27 1.4
69 *668:24 *855:SE 1.4
70 *668:23 *668:25 3.48008
71 *668:22 *668:24 1.4
72 *668:21 *668:23 1.4
73 *668:20 *668:22 0.248578
74 *668:19 *668:21 5.4687
75 *668:18 *668:20 1.4
76 *668:15 *668:19 1.4
77 *668:14 *668:18 0.745727
78 *668:13 *858:SE 1.4
79 *668:12 *852:SE 1.4
80 *668:11 *668:15 0.248578
81 *668:11 *668:14 1.4
82 *668:10 *668:13 0.124288
83 *668:9 *668:12 4.59852
84 *668:8 *668:11 3.85295
85 *668:8 *668:10 1.4
86 *668:7 *668:9 1.4
87 *668:6 *668:8 5.09584
88 *668:6 *668:7 0.124289
89 *668:5 *668:6 1.4
90 *668:4 *668:5 0.745696
91 *668:3 *668:4 1.4
92 *668:2 *668:3 0.124289
93 *668:1 *668:2 1.4
94 *857:SE *668:1 1.4
*END

*D_NET *669 0.0479677

*CONN
*I *798:SE I *C 71.485 94.395 *L 0.00381 *D SDFFQX1
*I *795:SE I *C 58.435 91.205 *L 0.00381 *D SDFFQX1
*I *797:SE I *C 72.935 83.955 *L 0.00381 *D SDFFQX1
*I *796:SE I *C 68.295 68.295 *L 0.00381 *D SDFFQX1
*I *793:SE I *C 56.985 63.075 *L 0.00381 *D SDFFQX1
*I *792:SE I *C 68.295 54.665 *L 0.00381 *D SDFFQX1
*I *788:SE I *C 41.325 52.635 *L 0.00381 *D SDFFQX1
*I *794:SE I *C 73.805 42.195 *L 0.00381 *D SDFFQX1
*I *786:SE I *C 70.905 7.685 *L 0.00381 *D SDFFQX1
*I *787:SE I *C 62.495 7.685 *L 0.00381 *D SDFFQX1
*I *784:SE I *C 29.725 10.875 *L 0.00381 *D SDFFQX1
*I *785:SE I *C 13.485 16.095 *L 0.00381 *D SDFFQX1
*I *941:Y O *C 14.37 42.2375 *L 0 *D AND3X1
*I *789:SE I *C 11.165 59.885 *L 0.00381 *D SDFFQX1
*I *791:SE I *C 11.165 83.955 *L 0.00381 *D SDFFQX1
*I *790:SE I *C 11.165 85.985 *L 0.00381 *D SDFFQX1

*CAP
1 *669:2 2.43264e-05
2 *669:3 2.43264e-05
3 *669:4 0.000245645
4 *669:5 0.000245645
5 *669:6 2.43264e-05
6 *669:7 0.00111902
7 *669:8 0.00049129
8 *669:9 0.00109469
9 *669:10 0.000532231
10 *669:11 2.04704e-05
11 *669:12 0.000121632
12 *669:13 4.09408e-05
13 *669:14 2.04704e-05
14 *669:15 0.000121632
15 *669:16 0.000267591
16 *669:19 0.000267591
17 *669:21 0.00118818
18 *669:22 0.00162119
19 *669:24 0.000433015
20 *669:26 2.73971e-05
21 *669:28 0.00106849
22 *669:29 0.000697635
23 *669:30 0.00104109
24 *669:31 0.00180239
25 *669:33 2.73971e-05
26 *669:34 0.00110476
27 *669:35 0.00148393
28 *669:36 2.73971e-05
29 *669:37 0.000248741
30 *669:39 0.00148393
31 *669:41 0.000248741
32 *669:43 0.000906744
33 *669:45 0.00274581
34 *669:46 0.000906744
35 *669:47 0.000120037
36 *669:48 0.00262577
37 *669:49 2.82705e-05
38 *669:50 0.000304017
39 *669:51 0.000731686
40 *669:52 2.82705e-05
41 *669:53 0.000304017
42 *669:54 2.52305e-05
43 *669:55 0.000706455
44 *669:57 4.80149e-05
45 *669:58 2.11687e-05
46 *669:59 2.11687e-05
47 *669:61 4.80149e-05
48 *669:62 2.11687e-05
49 *669:63 0.000254024
50 *669:66 0.000232855
51 *669:68 0.00288297
52 *669:69 0.00288297
53 *669:70 0.000296196
54 *669:71 0.000296196
55 *669:73 0.00126747
56 *669:74 0.00126747
57 *669:75 8.2028e-05
58 *669:76 0.00194977
59 *669:77 0.00186774
60 *669:79 2.36992e-05
61 *669:80 2.36992e-05
62 *669:81 0.000140636
63 *669:82 0.00162268
64 *669:83 9.47969e-05
65 *669:84 0.00148204
66 *669:85 9.47969e-05
67 *669:86 0.000110463
68 *669:87 3.63714e-06
69 *669:88 0.000154649
70 *669:89 4.84952e-06
71 *669:90 0.00183752
72 *669:91 4.41853e-05
73 *669:92 1.21238e-06
74 *669:93 0.00183752
75 *669:94 4.72548e-05
76 *669:96 4.12482e-05
77 *669:97 4.72548e-05
78 *669:98 4.12482e-05
79 *669:100 0.000138001
80 *669:101 0.000138001

*RES
1 *669:101 *790:SE 1.4
2 *669:100 *791:SE 1.4
3 *669:100 *669:101 0.870014
4 *669:98 *669:100 1.4
5 *669:97 *789:SE 1.4
6 *669:96 *669:98 0.248566
7 *669:94 *669:97 0.248565
8 *669:93 *669:96 1.4
9 *669:92 *941:Y 1.4
10 *669:91 *669:94 1.4
11 *669:90 *669:93 10.067
12 *669:89 *669:92 0.00642841
13 *669:88 *669:91 0.248577
14 *669:88 *669:90 1.4
15 *669:87 *669:89 0.0192852
16 *669:86 *669:88 0.621444
17 *669:85 *669:87 1.4
18 *669:84 *669:86 1.4
19 *669:83 *669:85 0.497155
20 *669:82 *669:84 7.82981
21 *669:82 *669:83 1.4
22 *669:81 *669:82 0.745696
23 *669:80 *669:81 1.4
24 *669:79 *669:80 0.124289
25 *669:77 *669:79 1.4
26 *669:76 *785:SE 1.4
27 *669:76 *669:77 10.4398
28 *669:75 *669:76 0.497133
29 *669:74 *669:75 1.4
30 *669:73 *669:74 6.96009
31 *669:71 *669:73 1.4
32 *669:70 *784:SE 1.4
33 *669:70 *669:71 1.74003
34 *669:69 *669:70 1.4
35 *669:68 *669:69 14.0439
36 *669:66 *669:68 1.4
37 *669:63 *787:SE 1.4
38 *669:63 *669:66 1.36718
39 *669:62 *786:SE 1.4
40 *669:61 *794:SE 1.4
41 *669:59 *669:63 0.124289
42 *669:58 *669:62 0.124289
43 *669:57 *669:61 0.248565
44 *669:56 *788:SE 1.4
45 *669:55 *669:59 1.4
46 *669:54 *669:58 1.4
47 *669:53 *669:57 1.4
48 *669:52 *669:56 1.4
49 *669:51 *669:55 3.47991
50 *669:51 *669:54 0.124283
51 *669:50 *669:53 1.36717
52 *669:49 *669:52 0.124283
53 *669:48 *669:51 1.4
54 *669:47 *669:50 1.4
55 *669:46 *669:49 1.4
56 *669:45 *669:48 14.5415
57 *669:45 *669:47 0.621413
58 *669:43 *669:46 4.4744
59 *669:41 *669:45 1.4
60 *669:40 *792:SE 1.4
61 *669:39 *669:43 1.4
62 *669:38 *793:SE 1.4
63 *669:37 *669:41 1.11859
64 *669:36 *669:40 1.4
65 *669:35 *669:39 6.58709
66 *669:35 *669:38 1.4
67 *669:34 *669:37 1.4
68 *669:33 *669:36 0.124289
69 *669:32 *669:35 1.4
70 *669:31 *669:34 5.71705
71 *669:31 *669:33 1.4
72 *669:30 *669:32 1.4
73 *669:29 *669:31 3.60437
74 *669:28 *669:30 4.72297
75 *669:28 *669:29 1.4
76 *669:26 *669:28 0.124289
77 *669:25 *796:SE 1.4
78 *669:24 *669:26 1.4
79 *669:23 *669:25 1.4
80 *669:22 *669:24 2.2372
81 *669:22 *669:23 1.4
82 *669:21 *669:22 6.463
83 *669:19 *669:21 1.4
84 *669:18 *797:SE 1.4
85 *669:16 *669:19 1.36718
86 *669:15 *669:18 1.4
87 *669:14 *795:SE 1.4
88 *669:13 *669:16 1.4
89 *669:12 *669:15 0.621444
90 *669:11 *669:14 0.124288
91 *669:10 *669:13 0.248576
92 *669:10 *669:12 1.4
93 *669:9 *669:11 1.4
94 *669:8 *669:10 2.98291
95 *669:7 *669:9 5.59299
96 *669:7 *669:8 1.4
97 *669:6 *669:7 0.124289
98 *669:5 *669:6 1.4
99 *669:4 *669:5 1.49145
100 *669:3 *669:4 1.4
101 *669:2 *669:3 0.124289
102 *669:1 *669:2 1.4
103 *798:SE *669:1 1.4
*END

*D_NET *670 0.0141066

*CONN
*I *725:D I *C 26.535 10.585 *L 0.00183 *D SDFFQX1
*I *800:SI I *C 27.405 7.975 *L 0.00172 *D SDFFQX1
*I *755:SI I *C 22.475 5.365 *L 0.00172 *D SDFFQX1
*I *860:SI I *C 18.995 13.195 *L 0.00172 *D SDFFQX1
*I *875:D I *C 17.835 7.975 *L 0.00183 *D SDFFQX1
*I *785:SI I *C 13.195 15.805 *L 0.00172 *D SDFFQX1
*I *905:D I *C 9.425 13.195 *L 0.00181 *D SDFFQXL
*I *740:SI I *C 16.965 18.415 *L 0.00172 *D SDFFQX1
*I *815:SI I *C 24.795 18.415 *L 0.00172 *D SDFFQX1
*I *890:SI I *C 10.875 7.975 *L 0.00172 *D SDFFQX1
*I *770:SI I *C 13.775 5.365 *L 0.00172 *D SDFFQX1
*I *1342:A I *C 25.665 23.635 *L 0.0017 *D MXI2XL
*I *974:Y O *C 25.665 26.825 *L 0 *D AO21X1
*I *1340:A I *C 17.835 26.245 *L 0.0017 *D MXI2XL
*I *1356:B I *C 16.39 29.195 *L 0.00164 *D MXI2XL
*I *845:D I *C 9.425 28.855 *L 0.00181 *D SDFFQXL
*I *830:SI I *C 10.875 26.245 *L 0.00172 *D SDFFQX1

*CAP
1 *670:2 5.12847e-05
2 *670:3 5.12847e-05
3 *670:4 0.000190412
4 *670:5 0.000232725
5 *670:6 2.56424e-05
6 *670:7 4.23137e-05
7 *670:8 2.56424e-05
8 *670:9 0.000361857
9 *670:11 0.000361857
10 *670:13 0.000225577
11 *670:14 8.2028e-05
12 *670:15 0.000143549
13 *670:16 0.000261224
14 *670:18 0.000261224
15 *670:19 0.000369126
16 *670:20 0.000328112
17 *670:21 4.1014e-05
18 *670:23 0.000435373
19 *670:24 8.70747e-05
20 *670:25 0.000435373
21 *670:26 8.70747e-05
22 *670:27 0.00020507
23 *670:29 0.000389633
24 *670:30 2.0507e-05
25 *670:32 0.00020507
26 *670:34 0.000282993
27 *670:35 0.000282993
28 *670:36 0.000282993
29 *670:37 0.000870747
30 *670:38 0.000369126
31 *670:39 0.000587754
32 *670:40 2.0507e-05
33 *670:41 2.0507e-05
34 *670:42 0.000348619
35 *670:43 0.000369126
36 *670:44 2.0507e-05
37 *670:46 0.000108843
38 *670:47 0.000348619
39 *670:48 2.0507e-05
40 *670:50 0.00032653
41 *670:51 4.35373e-05
42 *670:53 0.000217687
43 *670:55 6.5306e-05
44 *670:56 0.000184563
45 *670:58 0.000232908
46 *670:59 2.17687e-05
47 *670:60 0.000184563
48 *670:61 0.000232908
49 *670:64 0.000639879
50 *670:66 2.36992e-05
51 *670:67 0.00061618
52 *670:69 0.000234394
53 *670:71 0.000187515
54 *670:72 4.68787e-05
55 *670:73 0.000118496
56 *670:75 0.000639879
57 *670:76 4.04127e-06
58 *670:77 0.000521383
59 *670:78 4.44539e-06
60 *670:79 2.34394e-05
61 *670:80 4.04127e-07
62 *670:81 0.000234394
63 *670:83 4.73985e-05
64 *670:84 0.000210954
65 *670:85 4.73985e-05
66 *670:86 7.10977e-05
67 *670:88 7.10977e-05

*RES
1 *670:90 *830:SI 1.4
2 *670:88 *670:90 1.4
3 *670:87 *845:D 1.4
4 *670:86 *670:88 0.372866
5 *670:85 *670:87 1.4
6 *670:84 *670:86 1.4
7 *670:83 *670:85 0.248577
8 *670:81 *670:84 1.11854
9 *670:81 *670:83 1.4
10 *670:80 *1356:B 1.4
11 *670:79 *670:81 0.124283
12 *670:78 *670:80 0.0021428
13 *670:77 *670:79 1.4
14 *670:76 *670:78 0.021428
15 *670:75 *670:77 2.73435
16 *670:75 *670:76 1.4
17 *670:73 *670:75 0.621444
18 *670:72 *1340:A 1.4
19 *670:71 *670:73 1.4
20 *670:69 *670:72 0.248565
21 *670:69 *670:71 0.994261
22 *670:68 *974:Y 1.4
23 *670:67 *670:69 1.4
24 *670:66 *670:68 1.4
25 *670:64 *670:67 3.23151
26 *670:64 *670:66 0.124289
27 *670:62 *1342:A 1.4
28 *670:61 *670:64 1.4
29 *670:60 *770:SI 1.4
30 *670:59 *670:62 1.4
31 *670:58 *670:61 1.36711
32 *670:56 *670:60 1.11855
33 *670:55 *670:59 0.124289
34 *670:55 *670:58 1.4
35 *670:54 *890:SI 1.4
36 *670:53 *670:56 1.4
37 *670:51 *670:55 0.248578
38 *670:50 *670:54 1.4
39 *670:50 *670:53 1.24289
40 *670:48 *815:SI 1.4
41 *670:47 *670:51 1.4
42 *670:46 *670:50 0.621444
43 *670:44 *740:SI 1.4
44 *670:43 *670:48 0.124283
45 *670:43 *670:47 2.11282
46 *670:42 *670:46 1.4
47 *670:41 *905:D 1.4
48 *670:40 *670:44 0.124283
49 *670:39 *670:43 1.4
50 *670:38 *670:42 2.11282
51 *670:38 *670:41 0.124283
52 *670:37 *670:40 1.4
53 *670:37 *670:39 3.3558
54 *670:36 *670:38 1.4
55 *670:35 *670:37 1.61575
56 *670:34 *670:36 1.61575
57 *670:32 *670:35 1.4
58 *670:30 *670:34 1.4
59 *670:29 *785:SI 1.4
60 *670:29 *670:32 1.24283
61 *670:28 *875:D 1.4
62 *670:27 *670:30 0.124283
63 *670:27 *670:29 1.11855
64 *670:26 *670:28 1.4
65 *670:25 *670:27 1.4
66 *670:24 *670:26 0.497155
67 *670:23 *670:25 2.48577
68 *670:21 *670:24 1.4
69 *670:20 *670:23 1.4
70 *670:20 *860:SI 1.4
71 *670:19 *670:21 0.248567
72 *670:19 *670:20 1.98853
73 *670:18 *670:19 1.4
74 *670:16 *670:18 1.49146
75 *670:15 *755:SI 1.4
76 *670:14 *670:16 1.4
77 *670:13 *670:15 0.869983
78 *670:13 *670:14 0.497133
79 *670:11 *670:13 1.4
80 *670:10 *800:SI 1.4
81 *670:9 *670:11 1.9886
82 *670:8 *670:10 1.4
83 *670:7 *670:9 1.4
84 *670:6 *670:8 0.124283
85 *670:5 *670:7 0.248576
86 *670:5 *670:6 1.4
87 *670:4 *670:5 1.11859
88 *670:3 *670:4 1.4
89 *670:2 *670:3 0.248565
90 *670:1 *670:2 1.4
91 *725:D *670:1 1.4
*END

*D_NET *671 0.0415475

*CONN
*I *821:SE I *C 24.215 94.395 *L 0.00367 *D SDFFQXL
*I *820:SE I *C 30.015 96.425 *L 0.00367 *D SDFFQXL
*I *825:SE I *C 40.165 96.425 *L 0.00367 *D SDFFQXL
*I *823:SE I *C 54.955 96.425 *L 0.00367 *D SDFFQXL
*I *828:SE I *C 83.665 96.425 *L 0.00381 *D SDFFQX1
*I *827:SE I *C 86.565 91.205 *L 0.00367 *D SDFFQXL
*I *822:SE I *C 79.895 73.515 *L 0.00367 *D SDFFQXL
*I *826:SE I *C 82.505 49.445 *L 0.00367 *D SDFFQXL
*I *824:SE I *C 75.835 52.635 *L 0.00367 *D SDFFQXL
*I *818:SE I *C 63.365 36.975 *L 0.00381 *D SDFFQX1
*I *816:SE I *C 77.865 23.345 *L 0.00381 *D SDFFQX1
*I *817:SE I *C 49.445 31.755 *L 0.00381 *D SDFFQX1
*I *937:Y O *C 26.245 42.485 *L 0 *D AND2X1
*I *814:SE I *C 26.535 18.125 *L 0.00381 *D SDFFQX1
*I *815:SE I *C 25.085 18.125 *L 0.00381 *D SDFFQX1
*I *819:SE I *C 20.735 44.225 *L 0.00367 *D SDFFQXL

*CAP
1 *671:1 3.94288e-05
2 *671:2 3.94288e-05
3 *671:3 0.000273652
4 *671:4 0.000273652
5 *671:5 0.000123406
6 *671:6 0.000123406
7 *671:7 0.000203047
8 *671:8 0.00109138
9 *671:9 0.00217274
10 *671:10 2.05677e-05
11 *671:11 0.00363541
12 *671:12 2.05677e-05
13 *671:13 2.05677e-05
14 *671:14 0.002351
15 *671:15 2.04704e-05
16 *671:16 2.05677e-05
17 *671:18 1.96862e-05
18 *671:19 2.04704e-05
19 *671:21 0.000334665
20 *671:24 0.000374038
21 *671:25 0.000191054
22 *671:26 5.90586e-05
23 *671:27 0.000191054
24 *671:28 0.000212282
25 *671:29 0.00130071
26 *671:30 0.000212282
27 *671:31 0.00305044
28 *671:32 1.96862e-05
29 *671:33 9.17977e-05
30 *671:34 0.001772
31 *671:35 1.96862e-05
32 *671:36 9.17977e-05
33 *671:37 0.000119088
34 *671:38 2.22686e-05
35 *671:41 0.000119088
36 *671:42 0.00046119
37 *671:44 0.000178149
38 *671:45 0.000488828
39 *671:46 0.000178149
40 *671:47 9.61032e-05
41 *671:48 2.76379e-05
42 *671:50 9.61032e-05
43 *671:51 0.00117636
44 *671:53 0.0012964
45 *671:54 0.00113315
46 *671:55 0.000120037
47 *671:56 0.00116079
48 *671:57 0.000221103
49 *671:58 0.000456141
50 *671:59 2.76379e-05
51 *671:60 0.000221103
52 *671:61 0.000456141
53 *671:62 2.40074e-05
54 *671:63 0.00100535
55 *671:64 0.00136348
56 *671:65 2.40074e-05
57 *671:66 0.00100535
58 *671:67 0.00356633
59 *671:71 0.00236223
60 *671:73 0.000931935
61 *671:74 0.000159378
62 *671:75 0.000931935
63 *671:76 0.00102101
64 *671:77 8.58254e-05
65 *671:78 0.00102101
66 *671:79 8.58254e-05
67 *671:80 0.000114654
68 *671:81 2.51874e-05
69 *671:82 9.28852e-05
70 *671:83 2.17687e-05
71 *671:84 2.51874e-05
72 *671:88 0.000476439
73 *671:91 0.000476439
74 *671:92 0.000117197
75 *671:93 0.000117197
76 *671:94 2.36992e-05
77 *671:95 2.36992e-05

*RES
1 *671:96 *819:SE 1.4
2 *671:95 *671:96 1.4
3 *671:94 *671:95 0.124289
4 *671:93 *671:94 1.4
5 *671:92 *671:93 0.621413
6 *671:91 *671:92 1.4
7 *671:88 *671:91 2.48577
8 *671:87 *815:SE 1.4
9 *671:86 *814:SE 1.4
10 *671:84 *671:88 1.4
11 *671:83 *671:87 1.4
12 *671:82 *671:86 1.4
13 *671:81 *937:Y 1.4
14 *671:81 *671:84 0.124288
15 *671:80 *671:83 0.124289
16 *671:80 *671:82 0.497146
17 *671:79 *671:81 1.4
18 *671:78 *671:80 1.4
19 *671:77 *671:79 0.372866
20 *671:76 *671:78 5.8413
21 *671:75 *671:77 1.4
22 *671:74 *671:76 1.4
23 *671:73 *671:75 4.59865
24 *671:71 *671:74 0.745732
25 *671:71 *671:73 1.4
26 *671:70 *817:SE 1.4
27 *671:67 *671:71 9.57023
28 *671:67 *671:70 1.4
29 *671:66 *816:SE 1.4
30 *671:65 *818:SE 1.4
31 *671:64 *671:67 6.09013
32 *671:63 *671:66 5.34421
33 *671:62 *671:65 0.124283
34 *671:61 *671:64 1.4
35 *671:60 *671:63 1.4
36 *671:59 *671:62 1.4
37 *671:58 *671:61 2.36137
38 *671:57 *671:60 0.994306
39 *671:56 *671:59 0.124288
40 *671:56 *671:58 1.4
41 *671:55 *671:57 1.4
42 *671:54 *671:56 5.09582
43 *671:53 *671:55 0.621413
44 *671:53 *671:54 1.4
45 *671:51 *671:53 6.08985
46 *671:50 *824:SE 1.4
47 *671:48 *671:51 1.4
48 *671:47 *671:50 0.49714
49 *671:46 *826:SE 1.4
50 *671:45 *671:48 0.124288
51 *671:45 *671:47 1.4
52 *671:44 *671:46 0.994302
53 *671:42 *671:45 2.23714
54 *671:41 *671:44 1.4
55 *671:40 *822:SE 1.4
56 *671:38 *671:42 1.4
57 *671:37 *671:41 0.621413
58 *671:36 *671:40 1.4
59 *671:35 *827:SE 1.4
60 *671:34 *671:38 0.124288
61 *671:34 *671:37 1.4
62 *671:33 *671:36 0.497155
63 *671:32 *671:35 0.124283
64 *671:31 *671:34 9.32135
65 *671:31 *671:33 1.4
66 *671:30 *671:32 1.4
67 *671:29 *671:31 7.82984
68 *671:28 *671:30 1.24289
69 *671:27 *671:29 1.4
70 *671:26 *671:28 1.4
71 *671:25 *671:27 1.1186
72 *671:24 *671:26 0.372848
73 *671:24 *671:25 1.4
74 *671:21 *671:24 1.98852
75 *671:21 *828:SE 1.4
76 *671:19 *823:SE 1.4
77 *671:18 *671:21 0.124283
78 *671:16 *825:SE 1.4
79 *671:15 *671:19 0.124288
80 *671:14 *671:18 1.4
81 *671:13 *820:SE 1.4
82 *671:12 *671:16 0.124283
83 *671:11 *671:15 1.4
84 *671:11 *671:14 12.3046
85 *671:10 *671:13 0.124283
86 *671:9 *671:12 1.4
87 *671:9 *671:11 6.33848
88 *671:8 *671:10 1.4
89 *671:8 *671:9 4.3499
90 *671:7 *671:8 0.994263
91 *671:6 *671:7 1.4
92 *671:5 *671:6 0.745696
93 *671:4 *671:5 1.4
94 *671:3 *671:4 1.4914
95 *671:2 *671:3 1.4
96 *671:1 *671:2 0.248576
97 *821:SE *671:1 1.4
*END

*D_NET *672 0.0488535

*CONN
*I *778:SE I *C 57.275 68.295 *L 0.00381 *D SDFFQX1
*I *773:SE I *C 56.695 54.665 *L 0.00381 *D SDFFQX1
*I *781:SE I *C 68.295 65.105 *L 0.00381 *D SDFFQX1
*I *782:SE I *C 72.935 89.175 *L 0.00381 *D SDFFQX1
*I *779:SE I *C 74.385 49.445 *L 0.00381 *D SDFFQX1
*I *777:SE I *C 75.545 65.105 *L 0.00381 *D SDFFQX1
*I *780:SE I *C 57.275 96.425 *L 0.00381 *D SDFFQX1
*I *783:SE I *C 74.965 96.425 *L 0.00381 *D SDFFQX1
*I *775:SE I *C 14.355 96.425 *L 0.00381 *D SDFFQX1
*I *774:SE I *C 13.485 57.855 *L 0.00381 *D SDFFQX1
*I *776:SE I *C 11.455 94.395 *L 0.00381 *D SDFFQX1
*I *940:Y O *C 14.66 38.9625 *L 0 *D AND3X1
*I *770:SE I *C 14.065 5.655 *L 0.00381 *D SDFFQX1
*I *769:SE I *C 39.295 5.655 *L 0.00381 *D SDFFQX1
*I *772:SE I *C 49.735 5.655 *L 0.00381 *D SDFFQX1
*I *771:SE I *C 75.255 5.655 *L 0.00381 *D SDFFQX1

*CAP
1 *672:2 5.47942e-05
2 *672:3 5.47942e-05
3 *672:4 0.000192451
4 *672:5 0.000192451
5 *672:6 0.000931501
6 *672:7 0.000931501
7 *672:8 0.000938199
8 *672:9 7.21692e-05
9 *672:10 0.000938199
10 *672:11 7.21692e-05
11 *672:13 0.000164383
12 *672:15 0.00065753
13 *672:17 0.000493148
14 *672:19 7.21692e-05
15 *672:21 0.00186221
16 *672:23 0.00228133
17 *672:24 8.21913e-05
18 *672:26 0.00051176
19 *672:27 4.86529e-05
20 *672:28 0.00019178
21 *672:29 2.04704e-05
22 *672:30 0.000121632
23 *672:31 4.86529e-05
24 *672:32 0.000109588
25 *672:33 0.00137075
26 *672:34 0.00136228
27 *672:35 0.000121632
28 *672:37 7.21692e-05
29 *672:38 0.00137075
30 *672:39 0.00490755
31 *672:40 2.04704e-05
32 *672:42 7.21692e-05
33 *672:45 0.00354527
34 *672:46 2.04704e-05
35 *672:49 0.000118287
36 *672:52 0.000118287
37 *672:53 6.18723e-05
38 *672:54 0.000206241
39 *672:55 0.0027796
40 *672:56 0.000144369
41 *672:57 0.0027796
42 *672:58 1.97144e-05
43 *672:61 1.97144e-05
44 *672:62 0.00155066
45 *672:64 0.00155066
46 *672:65 4.73985e-05
47 *672:66 9.47969e-05
48 *672:67 4.73985e-05
49 *672:68 0.00246535
50 *672:69 2.02063e-05
51 *672:70 0.00246535
52 *672:71 2.14187e-05
53 *672:72 0.00207013
54 *672:73 1.21238e-06
55 *672:74 0.00299325
56 *672:77 0.00314691
57 *672:80 0.00222379

*RES
1 *672:83 *771:SE 1.4
2 *672:81 *772:SE 1.4
3 *672:80 *672:83 1.4
4 *672:78 *769:SE 1.4
5 *672:77 *672:81 1.4
6 *672:77 *672:80 10.9369
7 *672:75 *770:SE 1.4
8 *672:74 *672:78 1.4
9 *672:74 *672:77 4.47418
10 *672:73 *940:Y 1.4
11 *672:72 *672:75 1.4
12 *672:72 *672:74 10.8128
13 *672:71 *672:73 0.00642841
14 *672:70 *672:72 1.4
15 *672:69 *672:71 0.10714
16 *672:68 *672:70 14.1683
17 *672:67 *672:69 1.4
18 *672:66 *672:68 1.4
19 *672:66 *672:67 0.248577
20 *672:65 *672:66 0.248577
21 *672:64 *672:65 1.4
22 *672:62 *672:64 8.20266
23 *672:61 *776:SE 1.4
24 *672:60 *672:62 1.4
25 *672:58 *672:61 0.124288
26 *672:57 *672:60 1.4
27 *672:57 *774:SE 1.4
28 *672:56 *672:58 1.4
29 *672:55 *672:57 15.7842
30 *672:54 *672:56 0.869982
31 *672:54 *672:55 1.4
32 *672:53 *672:54 0.372849
33 *672:52 *672:53 1.4
34 *672:49 *672:52 0.745727
35 *672:49 *775:SE 1.4
36 *672:46 *783:SE 1.4
37 *672:45 *672:49 1.4
38 *672:44 *780:SE 1.4
39 *672:42 *777:SE 1.4
40 *672:40 *672:46 0.124288
41 *672:39 *672:45 18.394
42 *672:39 *672:44 1.4
43 *672:38 *779:SE 1.4
44 *672:37 *672:42 0.372866
45 *672:36 *782:SE 1.4
46 *672:35 *672:40 1.4
47 *672:34 *672:39 6.96017
48 *672:33 *672:38 7.0844
49 *672:32 *672:37 1.4
50 *672:31 *672:36 1.4
51 *672:30 *672:35 0.621444
52 *672:29 *672:34 1.4
53 *672:28 *672:33 1.4
54 *672:28 *672:32 0.497155
55 *672:27 *672:31 0.248578
56 *672:26 *672:30 1.4
57 *672:26 *672:29 0.124288
58 *672:24 *672:28 0.372866
59 *672:23 *672:27 1.4
60 *672:23 *672:26 2.98291
61 *672:22 *781:SE 1.4
62 *672:21 *672:24 1.4
63 *672:21 *672:23 9.94306
64 *672:20 *672:22 1.4
65 *672:19 *672:21 0.372866
66 *672:18 *672:20 1.4
67 *672:17 *672:19 1.4
68 *672:15 *672:18 1.4
69 *672:15 *672:17 2.2372
70 *672:14 *773:SE 1.4
71 *672:13 *672:15 0.745732
72 *672:12 *672:14 1.4
73 *672:11 *672:13 1.4
74 *672:10 *672:12 1.4
75 *672:9 *672:11 0.372866
76 *672:8 *672:10 4.84726
77 *672:7 *672:9 1.4
78 *672:6 *672:8 1.4
79 *672:6 *672:7 4.22582
80 *672:5 *672:6 1.4
81 *672:4 *672:5 0.99431
82 *672:3 *672:4 1.4
83 *672:2 *672:3 0.248577
84 *672:1 *672:2 1.4
85 *778:SE *672:1 1.4
*END

*D_NET *673 0.000811591

*CONN
*I *1339:B I *C 16.095 23.345 *L 0.00284 *D NAND2BX1
*I *1340:Y O *C 18.125 26.825 *L 0 *D MXI2XL

*CAP
1 *673:1 4.1014e-05
2 *673:2 4.1014e-05
3 *673:3 0.000152381
4 *673:4 0.000152381
5 *673:5 0.000212401
6 *673:6 0.000212401

*RES
1 *673:6 *1340:Y 1.4
2 *673:5 *673:6 1.24283
3 *673:4 *673:5 1.4
4 *673:3 *673:4 0.870021
5 *673:2 *673:3 1.4
6 *673:1 *673:2 0.248567
7 *1339:B *673:1 1.4
*END

*D_NET *674 0.00155977

*CONN
*I *1248:D I *C 6.525 23.635 *L 0.00183 *D SDFFQX1
*I *1339:Y O *C 16.095 22.765 *L 0 *D NAND2BX1

*CAP
1 *674:1 4.1014e-05
2 *674:2 4.1014e-05
3 *674:3 0.000718366
4 *674:4 0.000718366
5 *674:5 2.0507e-05
6 *674:6 2.0507e-05

*RES
1 *674:6 *1339:Y 1.4
2 *674:5 *674:6 0.124283
3 *674:4 *674:5 1.4
4 *674:3 *674:4 4.10153
5 *674:2 *674:3 1.4
6 *674:1 *674:2 0.248567
7 *1248:D *674:1 1.4
*END

*D_NET *675 0.000519925

*CONN
*I *1341:B I *C 22.765 23.345 *L 0.00284 *D NAND2BX1
*I *1342:Y O *C 25.955 23.055 *L 0 *D MXI2XL

*CAP
1 *675:1 2.0507e-05
2 *675:2 2.0507e-05
3 *675:3 0.000239455
4 *675:4 0.000239455

*RES
1 *675:5 *1342:Y 1.4
2 *675:4 *675:5 1.4
3 *675:3 *675:4 1.36718
4 *675:2 *675:3 1.4
5 *675:1 *675:2 0.124283
6 *1341:B *675:1 1.4
*END

*D_NET *676 0.00046377

*CONN
*I *1220:D I *C 21.315 21.025 *L 0.00183 *D SDFFQX1
*I *1341:Y O *C 22.765 22.765 *L 0 *D NAND2BX1

*CAP
1 *676:2 0.000108843
2 *676:3 0.000108843
3 *676:4 0.000123042
4 *676:5 0.000123042

*RES
1 *676:5 *1341:Y 1.4
2 *676:4 *676:5 0.7457
3 *676:3 *676:4 1.4
4 *676:2 *676:3 0.621444
5 *676:1 *676:2 1.4
6 *1220:D *676:1 1.4
*END

*D_NET *677 0.0328408

*CONN
*I *1112:B1 I *C 45.385 85.985 *L 0.00283 *D AOI22X1
*I *1053:B1 I *C 38.425 85.985 *L 0.00283 *D AOI22X1
*I *1350:A1 I *C 32.915 80.765 *L 0.00168 *D AO22XL
*I *1348:A1 I *C 19.865 78.735 *L 0.00168 *D AO22XL
*I *1062:B1 I *C 22.475 57.855 *L 0.00283 *D AOI22X1
*I *981:A1 I *C 47.995 47.415 *L 0.00279 *D AOI211X1
*I *1068:B1 I *C 90.335 47.415 *L 0.00283 *D AOI22X1
*I *1077:B1 I *C 92.655 47.415 *L 0.00283 *D AOI22X1
*I *1343:Y O *C 46.835 36.685 *L 0 *D NOR2BX2
*I *1052:B1 I *C 89.755 68.295 *L 0.00163 *D AOI222XL
*I *1088:A1 I *C 92.365 89.465 *L 0.0028 *D AOI22X1
*I *1103:A0 I *C 90.335 89.175 *L 0.00157 *D AOI22XL

*CAP
1 *677:1 2.05677e-05
2 *677:2 2.05677e-05
3 *677:3 0.000609142
4 *677:4 0.000609142
5 *677:5 2.05677e-05
6 *677:6 0.000308515
7 *677:8 0.000287948
8 *677:9 0.000482237
9 *677:10 0.000482237
10 *677:11 8.22708e-05
11 *677:12 0.000185109
12 *677:14 0.000102838
13 *677:15 0.000854252
14 *677:16 0.000854252
15 *677:17 3.94288e-05
16 *677:18 0.00168748
17 *677:19 0.000185617
18 *677:20 0.0016953
19 *677:21 0.000185617
20 *677:22 0.00221269
21 *677:23 4.72548e-05
22 *677:25 0.00221269
23 *677:28 0.000957121
24 *677:30 0.000957121
25 *677:32 5.7217e-05
26 *677:33 0.000200259
27 *677:34 0.00403371
28 *677:35 0.000931935
29 *677:36 0.00408121
30 *677:38 0.000931935
31 *677:39 0.000190541
32 *677:42 2.86085e-05
33 *677:44 0.00164008
34 *677:46 2.86085e-05
35 *677:48 0.00164008
36 *677:50 2.29494e-05
37 *677:52 0.000229494
38 *677:53 0.00156721
39 *677:54 0.000206545
40 *677:55 0.00158689
41 *677:56 2.33514e-05
42 *677:57 1.96862e-05
43 *677:58 0.000148597
44 *677:59 2.33514e-05
45 *677:61 0.000148597

*RES
1 *677:64 *1103:A0 1.4
2 *677:63 *1088:A1 1.4
3 *677:61 *677:64 1.4
4 *677:60 *677:63 1.4
5 *677:59 *1052:B1 1.4
6 *677:58 *677:61 0.870021
7 *677:57 *677:60 1.4
8 *677:56 *677:59 0.124285
9 *677:55 *677:58 1.4
10 *677:55 *677:57 0.124283
11 *677:54 *677:56 1.4
12 *677:53 *677:55 9.0727
13 *677:52 *677:54 1.1186
14 *677:52 *677:53 1.4
15 *677:50 *677:52 0.124289
16 *677:49 *1343:Y 1.4
17 *677:48 *677:50 1.4
18 *677:46 *677:49 1.4
19 *677:44 *677:48 8.82426
20 *677:43 *1077:B1 1.4
21 *677:42 *677:46 0.124289
22 *677:40 *1068:B1 1.4
23 *677:39 *677:44 1.4
24 *677:39 *677:43 1.4
25 *677:38 *677:42 1.4
26 *677:37 *981:A1 1.4
27 *677:36 *677:40 1.4
28 *677:36 *677:39 0.994261
29 *677:35 *677:38 4.59865
30 *677:34 *677:37 1.4
31 *677:34 *677:36 18.1459
32 *677:33 *677:35 1.4
33 *677:33 *677:34 0.621444
34 *677:32 *677:33 0.248577
35 *677:30 *677:32 1.4
36 *677:29 *1062:B1 1.4
37 *677:28 *677:30 4.72296
38 *677:26 *677:29 1.4
39 *677:25 *677:28 1.4
40 *677:24 *1348:A1 1.4
41 *677:23 *677:26 1.4
42 *677:22 *677:25 10.067
43 *677:21 *677:24 1.4
44 *677:20 *677:23 0.248565
45 *677:20 *677:22 1.4
46 *677:19 *677:21 1.11855
47 *677:18 *677:20 8.69979
48 *677:18 *677:19 1.4
49 *677:17 *677:18 0.248576
50 *677:16 *677:17 1.4
51 *677:15 *677:16 4.47419
52 *677:14 *677:15 1.4
53 *677:12 *677:14 0.621413
54 *677:12 *1350:A1 1.4
55 *677:11 *677:12 0.497131
56 *677:10 *677:11 1.4
57 *677:9 *677:10 2.36137
58 *677:8 *677:9 1.4
59 *677:6 *677:8 1.73996
60 *677:6 *1053:B1 1.4
61 *677:5 *677:6 0.124283
62 *677:4 *677:5 1.4
63 *677:3 *677:4 2.98279
64 *677:2 *677:3 1.4
65 *677:1 *677:2 0.124283
66 *1112:B1 *677:1 1.4
*END

*D_NET *678 0.00701115

*CONN
*I *1271:A0 I *C 29.435 39.295 *L 0.00164 *D OAI21XL
*I *1263:A0 I *C 36.685 36.685 *L 0.00164 *D OAI21XL
*I *1264:A0 I *C 32.915 31.465 *L 0.00164 *D OAI21XL
*I *1344:Y O *C 32.335 20.735 *L 0 *D OAI2BB1X2
*I *979:B I *C 24.795 23.925 *L 0.00542 *D NOR2X2
*I *974:A1 I *C 24.505 26.825 *L 0.00163 *D AO21X1
*I *921:A I *C 30.595 21.315 *L 0.00273 *D CLKINVX1

*CAP
1 *678:1 0.000125937
2 *678:2 0.000125937
3 *678:3 0.000429127
4 *678:4 0.000429127
5 *678:5 7.55623e-05
6 *678:6 0.000604498
7 *678:7 0.000286085
8 *678:8 0.000528936
9 *678:9 0.000286085
10 *678:10 8.58254e-05
11 *678:11 2.51874e-05
12 *678:12 0.000114434
13 *678:13 2.51874e-05
14 *678:14 5.03749e-05
15 *678:15 2.86085e-05
16 *678:17 5.03749e-05
17 *678:18 0.000531955
18 *678:20 0.000531955
19 *678:21 2.56424e-05
20 *678:22 0.000674912
21 *678:23 0.000232725
22 *678:24 0.000671039
23 *678:25 0.000275039
24 *678:26 4.1014e-05
25 *678:27 2.17687e-05
26 *678:28 0.000153854
27 *678:29 4.23137e-05
28 *678:30 4.1014e-05
29 *678:31 0.000171387
30 *678:32 0.000153854
31 *678:35 0.000171387

*RES
1 *678:36 *921:A 1.4
2 *678:35 *974:A1 1.4
3 *678:32 *678:36 1.4
4 *678:31 *678:35 0.994265
5 *678:30 *979:B 1.4
6 *678:29 *1344:Y 1.4
7 *678:28 *678:32 0.745696
8 *678:27 *678:31 1.4
9 *678:26 *678:30 0.248567
10 *678:25 *678:29 0.248576
11 *678:25 *678:28 1.4
12 *678:24 *678:27 0.124289
13 *678:24 *678:26 1.4
14 *678:23 *678:25 1.36717
15 *678:22 *678:24 3.23138
16 *678:22 *678:23 1.4
17 *678:21 *678:22 0.124283
18 *678:20 *678:21 1.4
19 *678:18 *678:20 2.73433
20 *678:17 *1264:A0 1.4
21 *678:15 *678:18 1.4
22 *678:14 *678:17 0.248575
23 *678:13 *1263:A0 1.4
24 *678:12 *678:15 0.124289
25 *678:12 *678:14 1.4
26 *678:11 *678:13 0.124288
27 *678:10 *678:12 0.372866
28 *678:9 *678:11 1.4
29 *678:8 *678:10 1.4
30 *678:7 *678:9 1.24289
31 *678:6 *678:8 2.61004
32 *678:6 *678:7 1.4
33 *678:5 *678:6 0.372863
34 *678:4 *678:5 1.4
35 *678:3 *678:4 1.86433
36 *678:2 *678:3 1.4
37 *678:1 *678:2 0.621439
38 *1271:A0 *678:1 1.4
*END

*D_NET *679 0.00254042

*CONN
*I *983:D I *C 23.345 80.765 *L 0.00166 *D NAND4XL
*I *1345:Y O *C 14.355 89.465 *L 0 *D AOI221X1

*CAP
1 *679:1 0.000611147
2 *679:2 0.000611147
3 *679:3 0.000639347
4 *679:4 0.000639347
5 *679:5 1.97144e-05
6 *679:6 1.97144e-05

*RES
1 *679:6 *1345:Y 1.4
2 *679:5 *679:6 0.124288
3 *679:4 *679:5 1.4
4 *679:3 *679:4 3.85278
5 *679:2 *679:3 1.4
6 *679:1 *679:2 3.85292
7 *983:D *679:1 1.4
*END

*D_NET *680 0.00105113

*CONN
*I *1007:B I *C 85.405 54.955 *L 0.00167 *D NAND2XL
*I *1346:Y O *C 84.825 48.865 *L 0 *D AOI222XL

*CAP
1 *680:1 0.000477928
2 *680:2 0.000477928
3 *680:3 4.76353e-05
4 *680:4 4.76353e-05

*RES
1 *680:5 *1346:Y 1.4
2 *680:4 *680:5 1.4
3 *680:3 *680:4 0.248565
4 *680:2 *680:3 1.4
5 *680:1 *680:2 2.61001
6 *1007:B *680:1 1.4
*END

*D_NET *681 0.00132298

*CONN
*I *1029:A I *C 15.805 78.735 *L 0.00162 *D NOR2XL
*I *1347:Y O *C 14.065 84.245 *L 0 *D AO22XL

*CAP
1 *681:2 6.18723e-05
2 *681:3 6.18723e-05
3 *681:4 0.000394288
4 *681:5 0.000394288
5 *681:6 0.000185617
6 *681:7 0.000185617
7 *681:8 1.97144e-05
8 *681:9 1.97144e-05

*RES
1 *681:9 *1347:Y 1.4
2 *681:8 *681:9 0.124288
3 *681:7 *681:8 1.4
4 *681:6 *681:7 1.11855
5 *681:5 *681:6 1.4
6 *681:4 *681:5 2.48576
7 *681:3 *681:4 1.4
8 *681:2 *681:3 0.372849
9 *681:1 *681:2 1.4
10 *1029:A *681:1 1.4
*END

*D_NET *682 0.000408843

*CONN
*I *1029:B I *C 16.095 78.445 *L 0.00171 *D NOR2XL
*I *1348:Y O *C 18.415 79.025 *L 0 *D AO22XL

*CAP
1 *682:1 1.97144e-05
2 *682:2 1.97144e-05
3 *682:3 0.000164993
4 *682:4 0.000164993
5 *682:5 1.97144e-05
6 *682:6 1.97144e-05

*RES
1 *682:6 *1348:Y 1.4
2 *682:5 *682:6 0.124288
3 *682:4 *682:5 1.4
4 *682:3 *682:4 0.994265
5 *682:2 *682:3 1.4
6 *682:1 *682:2 0.124288
7 *1029:B *682:1 1.4
*END

*D_NET *683 0.000888103

*CONN
*I *997:B I *C 50.025 42.485 *L 0.00284 *D NAND2X1
*I *1349:Y O *C 46.545 42.485 *L 0 *D AOI22X1

*CAP
1 *683:1 5.03749e-05
2 *683:2 5.03749e-05
3 *683:3 0.000343302
4 *683:4 0.000343302
5 *683:5 5.03749e-05
6 *683:6 5.03749e-05

*RES
1 *683:6 *1349:Y 1.4
2 *683:5 *683:6 0.248575
3 *683:4 *683:5 1.4
4 *683:3 *683:4 1.49146
5 *683:2 *683:3 1.4
6 *683:1 *683:2 0.248575
7 *997:B *683:1 1.4
*END

*D_NET *684 0.00161391

*CONN
*I *1035:C0 I *C 31.755 91.495 *L 0.00277 *D AOI221X1
*I *1350:Y O *C 31.465 80.475 *L 0 *D AO22XL

*CAP
1 *684:2 2.53809e-05
2 *684:3 2.53809e-05
3 *684:4 0.000781572
4 *684:5 0.000781572

*RES
1 *684:5 *1350:Y 1.4
2 *684:4 *684:5 4.72274
3 *684:3 *684:4 1.4
4 *684:2 *684:3 0.124283
5 *684:1 *684:2 1.4
6 *1035:C0 *684:1 1.4
*END

*D_NET *685 0.00215773

*CONN
*I *1039:A0 I *C 15.515 57.855 *L 0.00157 *D AOI22XL
*I *1351:Y O *C 5.075 54.375 *L 0 *D AO22XL

*CAP
1 *685:2 0.000729057
2 *685:3 0.000729057
3 *685:4 0.000283529
4 *685:5 0.000283529
5 *685:6 6.6278e-05
6 *685:7 6.6278e-05

*RES
1 *685:8 *1351:Y 1.4
2 *685:7 *685:8 1.4
3 *685:6 *685:7 0.372866
4 *685:5 *685:6 1.4
5 *685:4 *685:5 1.49139
6 *685:3 *685:4 1.4
7 *685:2 *685:3 4.10153
8 *685:1 *685:2 1.4
9 *1039:A0 *685:1 1.4
*END

*D_NET *686 0.000401307

*CONN
*I *1118:A1 I *C 39.875 23.345 *L 0.00278 *D AOI21X1
*I *1352:Y O *C 37.845 23.055 *L 0 *D AO22XL

*CAP
1 *686:1 2.11568e-05
2 *686:2 2.11568e-05
3 *686:3 0.000179497
4 *686:4 0.000179497

*RES
1 *686:5 *1352:Y 1.4
2 *686:4 *686:5 1.4
3 *686:3 *686:4 0.869979
4 *686:2 *686:3 1.4
5 *686:1 *686:2 0.124288
6 *1118:A1 *686:1 1.4
*END

*D_NET *687 0.00276564

*CONN
*I *1119:A I *C 40.165 21.025 *L 0.0017 *D MXI2XL
*I *1353:Y O *C 31.465 12.615 *L 0 *D AO22XL

*CAP
1 *687:1 2.11568e-05
2 *687:2 2.11568e-05
3 *687:3 0.000769271
4 *687:4 0.000769271
5 *687:5 0.000592392
6 *687:6 0.000592392

*RES
1 *687:6 *1353:Y 1.4
2 *687:5 *687:6 3.48007
3 *687:4 *687:5 1.4
4 *687:3 *687:4 3.72848
5 *687:2 *687:3 1.4
6 *687:1 *687:2 0.124288
7 *1119:A *687:1 1.4
*END

*D_NET *688 0.000442675

*CONN
*I *1119:B I *C 39 20.685 *L 0.00164 *D MXI2XL
*I *1354:Y O *C 37.265 21.605 *L 0 *D AO22XL

*CAP
1 *688:1 3.64773e-07
2 *688:2 4.63262e-05
3 *688:3 4.59614e-05
4 *688:4 0.000153854
5 *688:5 0.000153854
6 *688:6 2.11568e-05
7 *688:7 2.11568e-05

*RES
1 *688:7 *1354:Y 1.4
2 *688:6 *688:7 0.124288
3 *688:5 *688:6 1.4
4 *688:4 *688:5 0.745696
5 *688:3 *688:4 1.4
6 *688:2 *688:3 0.270005
7 *688:1 *688:2 0.0021429
8 *1119:B *688:1 1.4
*END

*D_NET *689 0.000942252

*CONN
*I *1355:A I *C 15.225 31.465 *L 0.00157 *D NAND2XL
*I *1356:Y O *C 15.515 28.275 *L 0 *D MXI2XL

*CAP
1 *689:2 0.000118496
2 *689:3 0.000118496
3 *689:4 0.000257833
4 *689:5 0.000257833
5 *689:6 9.47969e-05
6 *689:7 9.47969e-05

*RES
1 *689:8 *1356:Y 1.4
2 *689:7 *689:8 1.4
3 *689:6 *689:7 0.497155
4 *689:5 *689:6 1.4
5 *689:4 *689:5 1.36711
6 *689:3 *689:4 1.4
7 *689:2 *689:3 0.621444
8 *689:1 *689:2 1.4
9 *1355:A *689:1 1.4
*END

*D_NET *690 0.00186449

*CONN
*I *1234:D I *C 13.485 21.025 *L 0.00183 *D SDFFQX1
*I *1355:Y O *C 14.645 32.045 *L 0 *D NAND2XL

*CAP
1 *690:2 2.17687e-05
2 *690:3 2.17687e-05
3 *690:4 0.000839379
4 *690:5 0.000839379
5 *690:6 7.10977e-05
6 *690:7 7.10977e-05

*RES
1 *690:8 *1355:Y 1.4
2 *690:7 *690:8 1.4
3 *690:6 *690:7 0.372866
4 *690:5 *690:6 1.4
5 *690:4 *690:5 4.72275
6 *690:3 *690:4 1.4
7 *690:2 *690:3 0.124289
8 *690:1 *690:2 1.4
9 *1234:D *690:1 1.4
*END

*D_NET *691 0.0162985

*CONN
*I *823:SI I *C 54.955 96.715 *L 0.00169 *D SDFFQXL
*I *913:D I *C 58.145 94.105 *L 0.00181 *D SDFFQXL
*I *898:SI I *C 54.955 88.885 *L 0.00169 *D SDFFQXL
*I *748:SI I *C 47.125 88.885 *L 0.00172 *D SDFFQX1
*I *733:D I *C 47.125 81.055 *L 0.00183 *D SDFFQX1
*I *919:A I *C 45.675 70.325 *L 0.00273 *D CLKINVX1
*I *763:SI I *C 47.995 91.495 *L 0.00172 *D SDFFQX1
*I *883:D I *C 45.675 94.105 *L 0.00181 *D SDFFQXL
*I *868:SI I *C 51.475 73.225 *L 0.00169 *D SDFFQXL
*I *778:SI I *C 56.985 68.005 *L 0.00172 *D SDFFQX1
*I *931:Y O *C 60.175 73.805 *L 0 *D AO21X1
*I *808:SI I *C 60.175 65.395 *L 0.00169 *D SDFFQXL
*I *793:SI I *C 56.695 62.785 *L 0.00172 *D SDFFQX1
*I *838:SI I *C 48.865 62.785 *L 0.00172 *D SDFFQX1
*I *853:D I *C 50.895 65.395 *L 0.00181 *D SDFFQXL

*CAP
1 *691:2 2.43264e-05
2 *691:3 2.43264e-05
3 *691:4 0.000163763
4 *691:5 0.000163763
5 *691:6 0.000267591
6 *691:7 0.000243264
7 *691:8 2.43264e-05
8 *691:9 2.04704e-05
9 *691:10 0.000388938
10 *691:11 2.04704e-05
11 *691:12 0.000429879
12 *691:15 4.09408e-05
13 *691:16 0.000675267
14 *691:17 0.000700648
15 *691:18 4.11354e-05
16 *691:19 2.53809e-05
17 *691:20 4.11354e-05
18 *691:21 0.000637599
19 *691:23 0.000123406
20 *691:24 0.00135186
21 *691:25 2.53809e-05
22 *691:26 2.53809e-05
23 *691:27 0.000888045
24 *691:28 2.53809e-05
25 *691:29 2.53809e-05
26 *691:30 0.000113082
27 *691:31 5.03747e-05
28 *691:32 0.000102838
29 *691:34 0.000113082
30 *691:35 0.000480598
31 *691:36 0.000308515
32 *691:38 5.03747e-05
33 *691:39 0.000480598
34 *691:40 0.000205677
35 *691:41 0.000126905
36 *691:42 5.03747e-05
37 *691:43 0.000251873
38 *691:44 7.61427e-05
39 *691:45 0.000126905
40 *691:47 0.000302248
41 *691:48 7.61427e-05
42 *691:50 5.03747e-05
43 *691:51 2.82705e-05
44 *691:52 2.05677e-05
45 *691:54 0.000494458
46 *691:55 2.82705e-05
47 *691:56 2.05677e-05
48 *691:57 0.000494458
49 *691:60 9.62255e-05
50 *691:62 0.000481128
51 *691:63 0.000301368
52 *691:64 0.000649522
53 *691:65 0.000301368
54 *691:67 0.00026462
55 *691:68 9.62255e-05
56 *691:69 0.000356162
57 *691:70 9.62255e-05
58 *691:71 0.000301368
59 *691:72 5.47942e-05
60 *691:74 4.81128e-05
61 *691:75 0.000216507
62 *691:76 4.81128e-05
63 *691:77 0.000216507
64 *691:79 0.000636684
65 *691:80 2.73971e-05
66 *691:81 0.000609287
67 *691:82 4.81128e-05
68 *691:83 5.03747e-05
69 *691:84 4.81128e-05
70 *691:85 0.000277061
71 *691:87 0.000226686
72 *691:88 0.000113082
73 *691:89 8.48115e-05
74 *691:90 0.000113082
75 *691:91 8.48115e-05

*RES
1 *691:93 *853:D 1.4
2 *691:92 *838:SI 1.4
3 *691:91 *691:93 1.4
4 *691:90 *691:92 1.4
5 *691:89 *691:91 0.372849
6 *691:88 *691:90 0.497131
7 *691:87 *691:89 1.4
8 *691:85 *691:88 1.4
9 *691:85 *691:87 1.1186
10 *691:84 *793:SI 1.4
11 *691:83 *691:85 0.248578
12 *691:82 *691:84 0.248578
13 *691:81 *691:83 1.4
14 *691:80 *691:82 1.4
15 *691:79 *691:81 2.73431
16 *691:79 *691:80 0.124289
17 *691:77 *691:79 1.4
18 *691:76 *808:SI 1.4
19 *691:75 *691:77 1.1186
20 *691:74 *691:76 0.248578
21 *691:72 *691:75 1.4
22 *691:71 *691:74 1.4
23 *691:70 *931:Y 1.4
24 *691:69 *691:72 0.248577
25 *691:69 *691:71 1.36718
26 *691:68 *691:70 0.497155
27 *691:67 *691:69 1.4
28 *691:65 *691:68 1.4
29 *691:64 *691:67 1.36718
30 *691:64 *778:SI 1.4
31 *691:63 *691:65 1.36718
32 *691:62 *691:64 1.98862
33 *691:62 *691:63 1.4
34 *691:60 *691:62 0.497155
35 *691:58 *868:SI 1.4
36 *691:57 *691:60 1.4
37 *691:56 *883:D 1.4
38 *691:55 *691:58 1.4
39 *691:54 *691:57 2.23719
40 *691:52 *691:56 0.124283
41 *691:51 *691:55 0.124283
42 *691:50 *691:54 1.4
43 *691:49 *763:SI 1.4
44 *691:48 *691:52 1.4
45 *691:47 *691:51 1.4
46 *691:47 *691:50 0.248578
47 *691:45 *691:49 1.4
48 *691:44 *691:48 0.372849
49 *691:43 *691:47 1.24289
50 *691:42 *919:A 1.4
51 *691:41 *691:45 0.621414
52 *691:40 *691:44 1.4
53 *691:39 *691:43 1.4
54 *691:38 *691:42 0.248578
55 *691:36 *691:41 1.4
56 *691:36 *691:40 1.24283
57 *691:35 *691:39 2.11281
58 *691:34 *691:38 1.4
59 *691:33 *733:D 1.4
60 *691:32 *691:36 0.621413
61 *691:31 *691:35 1.4
62 *691:30 *691:34 0.497131
63 *691:29 *691:33 1.4
64 *691:28 *691:32 1.4
65 *691:27 *691:31 0.248578
66 *691:27 *691:30 1.4
67 *691:26 *691:29 0.124283
68 *691:25 *691:28 0.124283
69 *691:24 *691:27 4.35005
70 *691:24 *691:26 1.4
71 *691:23 *691:25 1.4
72 *691:21 *691:24 3.10707
73 *691:21 *691:23 0.745696
74 *691:20 *748:SI 1.4
75 *691:19 *691:21 1.4
76 *691:18 *691:20 0.248565
77 *691:17 *691:19 0.124283
78 *691:17 *691:18 1.4
79 *691:16 *691:17 3.35569
80 *691:15 *691:16 1.4
81 *691:12 *691:15 0.248576
82 *691:12 *898:SI 1.4
83 *691:11 *913:D 1.4
84 *691:10 *691:12 2.36147
85 *691:9 *691:11 0.124288
86 *691:8 *691:10 1.4
87 *691:7 *691:9 1.4
88 *691:6 *691:8 0.124289
89 *691:6 *691:7 1.24289
90 *691:5 *691:6 1.4
91 *691:4 *691:5 0.994302
92 *691:3 *691:4 1.4
93 *691:2 *691:3 0.124289
94 *691:1 *691:2 1.4
95 *823:SI *691:1 1.4
*END

*D_NET *692 0.0118396

*CONN
*I *834:SI I *C 12.905 62.785 *L 0.00172 *D SDFFQX1
*I *744:SI I *C 10.875 62.785 *L 0.00172 *D SDFFQX1
*I *789:SI I *C 10.875 60.175 *L 0.00172 *D SDFFQX1
*I *849:D I *C 12.035 54.955 *L 0.00181 *D SDFFQXL
*I *774:SI I *C 13.195 57.565 *L 0.00172 *D SDFFQX1
*I *909:D I *C 9.425 52.345 *L 0.00181 *D SDFFQXL
*I *894:SI I *C 10.875 49.735 *L 0.00172 *D SDFFQX1
*I *879:D I *C 17.255 47.125 *L 0.00181 *D SDFFQXL
*I *804:SI I *C 18.705 49.735 *L 0.00172 *D SDFFQX1
*I *819:SI I *C 20.735 44.515 *L 0.00169 *D SDFFQXL
*I *864:SI I *C 20.155 52.345 *L 0.00169 *D SDFFQXL
*I *759:SI I *C 21.025 60.175 *L 0.00172 *D SDFFQX1
*I *959:Y O *C 26.7425 54.665 *L 0 *D CLKINVX1
*I *729:D I *C 28.855 47.125 *L 0.00183 *D SDFFQX1

*CAP
1 *692:1 2.36274e-05
2 *692:2 2.36274e-05
3 *692:3 0.000154649
4 *692:4 0.000220927
5 *692:5 2.36274e-05
6 *692:6 6.6278e-05
7 *692:7 2.36274e-05
8 *692:8 0.000236274
9 *692:10 0.000236274
10 *692:11 6.6278e-05
11 *692:12 0.000154649
12 *692:13 8.83706e-05
13 *692:15 0.000212647
14 *692:17 0.000425293
15 *692:18 8.83706e-05
16 *692:19 0.000330784
17 *692:20 8.83706e-05
18 *692:22 0.000118137
19 *692:24 0.000198834
20 *692:26 0.000198834
21 *692:27 9.45097e-05
22 *692:28 0.000328997
23 *692:30 0.000234488
24 *692:31 0.000118496
25 *692:32 0.000639879
26 *692:33 0.000545082
27 *692:34 2.34394e-05
28 *692:35 2.36992e-05
29 *692:36 0.000187515
30 *692:37 2.34394e-05
31 *692:38 2.34394e-05
32 *692:39 0.00035159
33 *692:41 0.000210954
34 *692:43 0.000164075
35 *692:44 0.000187515
36 *692:45 9.47969e-05
37 *692:46 0.000284391
38 *692:47 0.000213293
39 *692:48 9.47969e-05
40 *692:49 0.000284391
41 *692:50 0.000213293
42 *692:52 4.68787e-05
43 *692:53 2.35334e-05
44 *692:55 4.68787e-05
45 *692:56 4.71608e-05
46 *692:58 2.36274e-05
47 *692:60 6.6278e-05
48 *692:61 0.000397668
49 *692:62 0.000485568
50 *692:63 0.000614313
51 *692:64 0.000165392
52 *692:65 0.000154178
53 *692:66 0.000614313
54 *692:67 0.000165392
55 *692:68 0.000503749
56 *692:70 0.000125908
57 *692:71 0.000503749
58 *692:72 0.000125908
59 *692:73 0.000171651
60 *692:74 6.94823e-06
61 *692:75 0.000171651
62 *692:76 6.94823e-06
63 *692:77 2.51874e-05
64 *692:79 2.51874e-05

*RES
1 *692:79 *729:D 1.4
2 *692:77 *692:79 0.124288
3 *692:76 *959:Y 1.4
4 *692:75 *692:77 1.4
5 *692:74 *692:76 0.0342866
6 *692:73 *692:75 0.745732
7 *692:72 *692:74 1.4
8 *692:71 *692:73 1.4
9 *692:70 *692:72 0.621429
10 *692:68 *692:71 2.48576
11 *692:67 *692:70 1.4
12 *692:66 *759:SI 1.4
13 *692:65 *692:68 1.4
14 *692:64 *692:67 0.869979
15 *692:63 *692:66 3.23135
16 *692:62 *692:65 0.745712
17 *692:62 *692:64 1.4
18 *692:61 *692:63 1.4
19 *692:61 *692:62 1.86433
20 *692:60 *692:61 0.372866
21 *692:58 *692:60 1.4
22 *692:56 *864:SI 1.4
23 *692:56 *692:58 0.124283
24 *692:55 *819:SI 1.4
25 *692:53 *692:56 0.124283
26 *692:52 *692:55 0.248565
27 *692:51 *804:SI 1.4
28 *692:50 *692:53 1.4
29 *692:49 *692:52 1.4
30 *692:48 *692:51 1.4
31 *692:47 *692:50 1.1186
32 *692:46 *692:49 1.49146
33 *692:45 *692:48 0.497155
34 *692:44 *692:47 1.4
35 *692:43 *692:46 1.4
36 *692:41 *692:45 1.4
37 *692:41 *692:44 0.994261
38 *692:39 *692:43 0.869979
39 *692:39 *879:D 1.4
40 *692:38 *692:41 0.124283
41 *692:37 *894:SI 1.4
42 *692:36 *692:39 0.994261
43 *692:35 *692:38 1.4
44 *692:34 *692:37 0.124283
45 *692:33 *692:36 1.4
46 *692:33 *692:35 0.124289
47 *692:32 *692:34 1.4
48 *692:32 *692:33 2.73435
49 *692:31 *692:32 0.621444
50 *692:30 *692:31 1.4
51 *692:28 *692:30 1.24283
52 *692:28 *909:D 1.4
53 *692:27 *692:28 0.497131
54 *692:26 *692:27 1.4
55 *692:24 *692:26 1.1186
56 *692:23 *774:SI 1.4
57 *692:22 *692:24 1.4
58 *692:20 *692:23 1.4
59 *692:19 *692:22 0.621413
60 *692:19 *849:D 1.4
61 *692:18 *692:20 0.497155
62 *692:17 *692:19 1.11854
63 *692:17 *692:18 1.4
64 *692:15 *692:17 1.11854
65 *692:14 *789:SI 1.4
66 *692:13 *692:15 1.4
67 *692:12 *692:14 1.4
68 *692:12 *692:13 0.497155
69 *692:11 *692:12 0.372866
70 *692:10 *692:11 1.4
71 *692:8 *692:10 1.24283
72 *692:7 *744:SI 1.4
73 *692:6 *692:8 1.4
74 *692:5 *692:7 0.124283
75 *692:4 *692:6 0.372866
76 *692:4 *692:5 1.4
77 *692:3 *692:4 0.870021
78 *692:2 *692:3 1.4
79 *692:1 *692:2 0.124283
80 *834:SI *692:1 1.4
*END

*D_NET *693 0.0140883

*CONN
*I *881:D I *C 16.095 91.495 *L 0.00181 *D SDFFQXL
*I *806:SI I *C 16.385 94.105 *L 0.00169 *D SDFFQXL
*I *821:SI I *C 24.215 94.105 *L 0.00169 *D SDFFQXL
*I *776:SI I *C 11.165 94.105 *L 0.00172 *D SDFFQX1
*I *746:SI I *C 10.875 88.885 *L 0.00172 *D SDFFQX1
*I *791:SI I *C 10.875 83.665 *L 0.00172 *D SDFFQX1
*I *866:SI I *C 21.895 83.665 *L 0.00169 *D SDFFQXL
*I *911:D I *C 9.715 81.055 *L 0.00181 *D SDFFQXL
*I *836:SI I *C 21.895 86.275 *L 0.00169 *D SDFFQXL
*I *896:SI I *C 10.875 78.445 *L 0.00172 *D SDFFQX1
*I *761:SI I *C 29.725 86.275 *L 0.00172 *D SDFFQX1
*I *731:D I *C 28.275 83.665 *L 0.00183 *D SDFFQX1
*I *963:Y O *C 40.165 73.805 *L 0 *D AO21X1
*I *851:D I *C 14.645 75.835 *L 0.00181 *D SDFFQXL
*I *920:A I *C 27.405 73.515 *L 0.00273 *D CLKINVX1

*CAP
1 *693:2 2.06241e-05
2 *693:3 2.06241e-05
3 *693:4 0.00017743
4 *693:5 0.000197144
5 *693:6 1.97144e-05
6 *693:8 0.000556851
7 *693:9 0.000371234
8 *693:10 0.000556851
9 *693:11 0.000391858
10 *693:13 1.97144e-05
11 *693:14 2.06241e-05
12 *693:16 1.97144e-05
13 *693:17 0.000374574
14 *693:19 0.000729433
15 *693:21 0.00035486
16 *693:22 0.000866212
17 *693:24 0.00080434
18 *693:25 8.24964e-05
19 *693:26 2.06241e-05
20 *693:28 0.00017743
21 *693:29 0.00017743
22 *693:31 0.00035486
23 *693:32 0.00017743
24 *693:34 0.00017743
25 *693:35 0.000489406
26 *693:36 8.24964e-05
27 *693:37 0.000595687
28 *693:38 2.06241e-05
29 *693:39 0.000474354
30 *693:40 0.000126905
31 *693:41 0.000185109
32 *693:43 0.000391858
33 *693:46 0.000956015
34 *693:48 0.00021069
35 *693:52 0.000821281
36 *693:53 0.00021069
37 *693:54 0.00115909
38 *693:55 5.03747e-05
39 *693:56 0.000132556
40 *693:57 0.00115909
41 *693:58 8.48115e-05
42 *693:59 0.000132556
43 *693:61 8.48115e-05
44 *693:64 2.51873e-05
45 *693:66 2.51873e-05

*RES
1 *693:66 *920:A 1.4
2 *693:64 *693:66 0.124289
3 *693:62 *851:D 1.4
4 *693:61 *693:64 1.4
5 *693:60 *963:Y 1.4
6 *693:59 *693:62 1.4
7 *693:58 *693:61 0.372849
8 *693:57 *693:60 1.4
9 *693:56 *693:59 0.745732
10 *693:55 *693:58 1.4
11 *693:54 *693:57 5.0956
12 *693:53 *693:56 1.4
13 *693:52 *693:55 0.248578
14 *693:52 *693:54 1.4
15 *693:48 *693:53 1.11855
16 *693:46 *693:52 4.22571
17 *693:46 *731:D 1.4
18 *693:45 *761:SI 1.4
19 *693:44 *896:SI 1.4
20 *693:43 *693:48 1.4
21 *693:42 *836:SI 1.4
22 *693:41 *693:46 1.11854
23 *693:40 *693:45 1.4
24 *693:39 *693:44 1.4
25 *693:39 *693:43 2.36138
26 *693:38 *693:42 1.4
27 *693:37 *693:41 1.4
28 *693:37 *693:40 0.621414
29 *693:36 *693:39 0.497132
30 *693:35 *693:38 0.124283
31 *693:35 *693:37 2.60994
32 *693:34 *693:36 1.4
33 *693:32 *693:35 1.4
34 *693:31 *693:34 1.11859
35 *693:31 *911:D 1.4
36 *693:29 *693:32 1.11859
37 *693:28 *693:31 1.11859
38 *693:27 *866:SI 1.4
39 *693:26 *693:29 1.4
40 *693:25 *693:28 1.4
41 *693:24 *693:27 1.4
42 *693:24 *693:26 0.124283
43 *693:22 *693:25 0.497132
44 *693:22 *693:24 4.72276
45 *693:21 *791:SI 1.4
46 *693:21 *693:22 1.4
47 *693:19 *693:21 2.23718
48 *693:19 *746:SI 1.4
49 *693:17 *693:19 2.36147
50 *693:16 *776:SI 1.4
51 *693:14 *693:17 1.4
52 *693:13 *693:16 0.124288
53 *693:12 *821:SI 1.4
54 *693:11 *693:14 0.124283
55 *693:11 *693:13 1.4
56 *693:10 *693:12 1.4
57 *693:9 *693:11 2.2371
58 *693:8 *693:10 3.35564
59 *693:6 *693:9 1.4
60 *693:5 *693:8 1.4
61 *693:5 *806:SI 1.4
62 *693:5 *693:6 0.124288
63 *693:4 *693:5 1.11859
64 *693:3 *693:4 1.4
65 *693:2 *693:3 0.124283
66 *693:1 *693:2 1.4
67 *881:D *693:1 1.4
*END

*D_NET *694 0.0142489

*CONN
*I *802:SI I *C 63.655 15.805 *L 0.00172 *D SDFFQX1
*I *907:D I *C 63.365 5.365 *L 0.00181 *D SDFFQXL
*I *787:SI I *C 62.785 7.975 *L 0.00172 *D SDFFQX1
*I *892:SI I *C 60.175 7.975 *L 0.00172 *D SDFFQX1
*I *727:D I *C 56.695 13.195 *L 0.00183 *D SDFFQX1
*I *757:SI I *C 51.765 7.975 *L 0.00172 *D SDFFQX1
*I *742:SI I *C 53.505 18.415 *L 0.00172 *D SDFFQX1
*I *877:D I *C 50.315 10.585 *L 0.00181 *D SDFFQXL
*I *772:SI I *C 50.025 5.365 *L 0.00172 *D SDFFQX1
*I *847:D I *C 47.125 23.635 *L 0.00181 *D SDFFQXL
*I *832:SI I *C 58.435 28.855 *L 0.00172 *D SDFFQX1
*I *970:Y O *C 60.175 26.825 *L 0 *D OAI21X1
*I *817:SI I *C 49.735 31.465 *L 0.00172 *D SDFFQX1
*I *862:SI I *C 63.365 31.465 *L 0.00172 *D SDFFQX1
*I *924:A I *C 48.575 31.755 *L 0.00273 *D CLKINVX1

*CAP
1 *694:2 5.04611e-05
2 *694:3 5.04611e-05
3 *694:4 0.000529217
4 *694:5 0.000529217
5 *694:6 5.04611e-05
6 *694:7 2.52305e-05
7 *694:8 0.000252305
8 *694:9 0.000232855
9 *694:10 4.23373e-05
10 *694:11 0.000529841
11 *694:12 0.000232855
12 *694:13 4.23373e-05
13 *694:14 4.23373e-05
14 *694:15 0.000302766
15 *694:18 4.23373e-05
16 *694:19 0.000359867
17 *694:21 0.000762072
18 *694:22 2.11687e-05
19 *694:23 0.000423373
20 *694:25 0.000429537
21 *694:26 0.000277536
22 *694:27 0.000557749
23 *694:28 0.000277536
24 *694:29 2.11568e-05
25 *694:30 0.000153854
26 *694:31 0.00031753
27 *694:32 2.11568e-05
28 *694:33 0.000169255
29 *694:34 2.56424e-05
30 *694:35 0.000275193
31 *694:36 4.23373e-05
32 *694:38 0.000169255
33 *694:39 0.000211568
34 *694:40 0.00035714
35 *694:43 0.000211568
36 *694:44 0.00035714
37 *694:46 0.000105784
38 *694:47 0.000507772
39 *694:48 0.000401988
40 *694:49 0.000205139
41 *694:50 0.000114434
42 *694:51 0.000205139
43 *694:52 0.000865995
44 *694:53 4.23137e-05
45 *694:54 0.000917388
46 *694:55 0.000201499
47 *694:56 4.23137e-05
48 *694:57 0.000165827
49 *694:58 2.40074e-05
50 *694:59 0.000201499
51 *694:61 0.000264082
52 *694:62 2.40074e-05
53 *694:63 8.58254e-05
54 *694:64 7.20223e-05
55 *694:65 0.00019206
56 *694:67 8.58254e-05
57 *694:68 0.000304017
58 *694:70 2.51874e-05
59 *694:71 0.000304017
60 *694:72 2.51874e-05
61 *694:74 0.000120037
62 *694:75 0.000114434
63 *694:76 0.000120037
64 *694:77 0.000114434

*RES
1 *694:79 *924:A 1.4
2 *694:77 *694:79 1.4
3 *694:76 *862:SI 1.4
4 *694:75 *694:77 0.497155
5 *694:74 *694:76 0.621413
6 *694:72 *694:75 1.4
7 *694:71 *694:74 1.4
8 *694:70 *817:SI 1.4
9 *694:70 *694:72 0.124288
10 *694:68 *694:71 1.36717
11 *694:67 *694:70 1.4
12 *694:65 *970:Y 1.4
13 *694:64 *694:68 1.4
14 *694:63 *694:67 0.372866
15 *694:62 *832:SI 1.4
16 *694:61 *694:65 0.994261
17 *694:61 *694:64 0.372848
18 *694:59 *694:63 1.4
19 *694:58 *694:62 0.124283
20 *694:57 *694:61 1.4
21 *694:56 *847:D 1.4
22 *694:55 *694:59 0.994302
23 *694:54 *694:58 1.4
24 *694:54 *694:57 0.745729
25 *694:53 *694:56 0.248576
26 *694:52 *694:55 1.4
27 *694:52 *694:54 3.35578
28 *694:51 *694:53 1.4
29 *694:50 *694:52 0.497155
30 *694:49 *694:51 0.994261
31 *694:48 *694:50 1.4
32 *694:47 *694:49 1.4
33 *694:47 *694:48 2.11289
34 *694:46 *694:47 0.621441
35 *694:44 *694:46 1.4
36 *694:43 *772:SI 1.4
37 *694:40 *694:44 1.73996
38 *694:39 *694:43 1.24288
39 *694:38 *877:D 1.4
40 *694:36 *742:SI 1.4
41 *694:35 *694:40 1.4
42 *694:34 *694:39 1.4
43 *694:33 *694:38 0.994305
44 *694:32 *757:SI 1.4
45 *694:31 *694:36 0.248578
46 *694:31 *694:35 1.61575
47 *694:30 *694:34 0.124283
48 *694:30 *694:33 1.4
49 *694:29 *694:32 0.124288
50 *694:28 *694:31 1.4
51 *694:27 *694:30 0.621413
52 *694:27 *694:29 1.4
53 *694:26 *694:28 1.36711
54 *694:25 *694:27 2.11281
55 *694:23 *694:26 1.4
56 *694:22 *694:25 1.4
57 *694:21 *727:D 1.4
58 *694:21 *694:23 2.48577
59 *694:19 *694:22 0.124289
60 *694:19 *694:21 1.98862
61 *694:18 *892:SI 1.4
62 *694:15 *694:19 1.4
63 *694:14 *694:18 0.248578
64 *694:13 *787:SI 1.4
65 *694:12 *907:D 1.4
66 *694:11 *694:15 1.49139
67 *694:11 *694:14 1.4
68 *694:10 *694:13 0.248578
69 *694:9 *694:12 1.36718
70 *694:8 *694:11 1.11854
71 *694:8 *694:10 1.4
72 *694:7 *694:9 1.4
73 *694:6 *694:8 0.124283
74 *694:6 *694:7 0.124283
75 *694:5 *694:6 1.4
76 *694:4 *694:5 3.10722
77 *694:3 *694:4 1.4
78 *694:2 *694:3 0.248565
79 *694:1 *694:2 1.4
80 *802:SI *694:1 1.4
*END

*D_NET *695 0.0045536

*CONN
*I *1382:A I *C 90.045 15.805 *L 0.00178 *D AND2X1
*I *1366:A I *C 92.655 16.095 *L 0.00177 *D OR3X1
*I *1365:B I *C 92.075 12.615 *L 0.00285 *D NAND3X1
*I *1381:B I *C 91.495 10.585 *L 0.00171 *D NOR2XL
*I *1376:B1 I *C 88.595 10.875 *L 0.00283 *D AOI22X1
*I *1367:SI I *C 83.955 5.365 *L 0.00172 *D SDFFQX1
*I *1370:Q O *C 78.445 7.395 *L 0 *D SDFFQX1

*CAP
1 *695:2 0.000196572
2 *695:3 0.000196572
3 *695:4 0.000134667
4 *695:5 2.24446e-05
5 *695:6 0.000112223
6 *695:8 2.18413e-05
7 *695:9 2.18413e-05
8 *695:10 0.00024689
9 *695:11 0.00024689
10 *695:12 2.18413e-05
11 *695:13 6.55238e-05
12 *695:14 0.000112223
13 *695:15 0.000262095
14 *695:16 0.000112223
15 *695:17 4.48891e-05
16 *695:18 0.00050235
17 *695:20 4.48891e-05
18 *695:21 2.24446e-05
19 *695:22 0.000283937
20 *695:24 2.24446e-05
21 *695:25 0.000291779
22 *695:27 0.000291779
23 *695:28 6.55238e-05
24 *695:29 0.000480508
25 *695:30 0.000157112
26 *695:31 0.000414984
27 *695:32 0.000157112

*RES
1 *695:33 *1370:Q 1.4
2 *695:32 *1367:SI 1.4
3 *695:31 *695:33 1.4
4 *695:30 *695:32 0.870019
5 *695:29 *695:31 2.36138
6 *695:29 *695:30 1.4
7 *695:28 *695:29 0.372849
8 *695:27 *695:28 1.4
9 *695:25 *695:27 1.61575
10 *695:24 *1376:B1 1.4
11 *695:22 *695:25 1.4
12 *695:21 *695:24 0.124288
13 *695:20 *1381:B 1.4
14 *695:18 *695:22 1.61568
15 *695:18 *695:21 1.4
16 *695:17 *695:20 0.248577
17 *695:16 *1365:B 1.4
18 *695:15 *695:18 1.24283
19 *695:15 *695:17 1.4
20 *695:14 *695:16 0.621442
21 *695:13 *695:15 0.248566
22 *695:13 *695:14 1.4
23 *695:12 *695:13 0.124283
24 *695:11 *695:12 1.4
25 *695:10 *695:11 1.36717
26 *695:9 *695:10 1.4
27 *695:8 *695:9 0.124283
28 *695:6 *695:8 1.4
29 *695:5 *1366:A 1.4
30 *695:4 *695:6 0.621442
31 *695:4 *695:5 0.124288
32 *695:3 *695:4 1.4
33 *695:2 *695:3 1.11855
34 *695:1 *695:2 1.4
35 *1382:A *695:1 1.4
*END

*D_NET *696 0.00371157

*CONN
*I *1372:S0 I *C 82.795 10.585 *L 0.00372 *D MXI2XL
*I *1370:SI I *C 85.115 7.975 *L 0.00172 *D SDFFQX1
*I *1381:A I *C 91.205 10.875 *L 0.00162 *D NOR2XL
*I *1365:A I *C 91.785 12.905 *L 0.00264 *D NAND3X1
*I *1366:C I *C 91.785 16.095 *L 0.00165 *D OR3X1
*I *1382:B I *C 89.465 15.805 *L 0.00172 *D AND2X1
*I *1368:Q O *C 89.175 16.385 *L 0 *D SDFFQX1

*CAP
1 *696:1 2.24446e-05
2 *696:2 2.24446e-05
3 *696:3 0.00017473
4 *696:4 0.00017473
5 *696:5 2.24446e-05
6 *696:6 0.000179557
7 *696:7 0.000458667
8 *696:8 0.000157112
9 *696:9 0.000567873
10 *696:11 0.000109206
11 *696:12 6.73337e-05
12 *696:13 0.000224446
13 *696:14 6.73337e-05
14 *696:15 0.000471336
15 *696:17 0.00024689
16 *696:18 6.55238e-05
17 *696:19 6.55238e-05
18 *696:20 6.55238e-05
19 *696:21 0.000240254
20 *696:24 0.000196572
21 *696:27 2.24446e-05
22 *696:28 2.18413e-05
23 *696:29 2.24446e-05
24 *696:30 2.24446e-05
25 *696:32 2.24446e-05

*RES
1 *696:32 *1368:Q 1.4
2 *696:30 *696:32 0.124288
3 *696:29 *1382:B 1.4
4 *696:28 *696:30 1.4
5 *696:27 *696:29 0.124288
6 *696:24 *696:28 0.124283
7 *696:24 *696:27 1.4
8 *696:23 *1366:C 1.4
9 *696:22 *1365:A 1.4
10 *696:21 *696:24 0.994264
11 *696:21 *696:23 1.4
12 *696:20 *696:22 1.4
13 *696:19 *696:21 0.372849
14 *696:18 *696:20 0.372849
15 *696:17 *696:19 1.4
16 *696:15 *696:18 1.4
17 *696:15 *696:17 1.36717
18 *696:14 *1381:A 1.4
19 *696:13 *696:15 1.24288
20 *696:12 *696:14 0.372865
21 *696:11 *696:13 1.4
22 *696:9 *696:12 1.4
23 *696:9 *696:11 0.621415
24 *696:8 *1370:SI 1.4
25 *696:7 *696:9 2.60994
26 *696:6 *696:8 0.870019
27 *696:6 *696:7 1.4
28 *696:5 *696:6 0.124288
29 *696:4 *696:5 1.4
30 *696:3 *696:4 0.994264
31 *696:2 *696:3 1.4
32 *696:1 *696:2 0.124288
33 *1372:S0 *696:1 1.4
*END

*D_NET *697 0.00208807

*CONN
*I *1369:A1N I *C 90.625 7.975 *L 0.0017 *D OAI2BB1X1
*I *1378:A I *C 90.625 10.875 *L 0.00162 *D NOR2XL
*I *1382:Y O *C 90.625 16.385 *L 0 *D AND2X1

*CAP
1 *697:2 0.000131048
2 *697:3 0.000131048
3 *697:4 0.000224446
4 *697:5 0.000650893
5 *697:6 0.000426447
6 *697:7 0.000131048
7 *697:8 0.000131048
8 *697:9 0.000131048
9 *697:10 0.000131048

*RES
1 *697:12 *1382:Y 1.4
2 *697:11 *1378:A 1.4
3 *697:10 *697:12 1.4
4 *697:9 *697:11 1.4
5 *697:8 *697:10 0.745698
6 *697:7 *697:9 0.745698
7 *697:6 *697:8 1.4
8 *697:5 *697:7 1.4
9 *697:5 *697:6 2.36148
10 *697:4 *697:5 1.24288
11 *697:3 *697:4 1.4
12 *697:2 *697:3 0.745698
13 *697:1 *697:2 1.4
14 *1369:A1N *697:1 1.4
*END

*D_NET *698 0.000842035

*CONN
*I *1374:B I *C 92.945 10.585 *L 0.00171 *D NOR2XL
*I *1381:Y O *C 91.785 10.295 *L 0 *D NOR2XL
*I *1378:B I *C 90.335 10.585 *L 0.00171 *D NOR2XL

*CAP
1 *698:1 6.73337e-05
2 *698:2 6.73337e-05
3 *698:3 8.73651e-05
4 *698:4 0.000196572
5 *698:5 8.97783e-05
6 *698:6 0.000109206
7 *698:7 8.97783e-05
8 *698:8 6.73337e-05
9 *698:10 6.73337e-05

*RES
1 *698:10 *1378:B 1.4
2 *698:8 *698:10 0.372865
3 *698:7 *1381:Y 1.4
4 *698:6 *698:8 1.4
5 *698:5 *698:7 0.497154
6 *698:4 *698:6 0.621415
7 *698:4 *698:5 1.4
8 *698:3 *698:4 0.497132
9 *698:2 *698:3 1.4
10 *698:1 *698:2 0.372865
11 *1374:B *698:1 1.4
*END

*D_NET *699 0.00294724

*CONN
*I *1379:A I *C 84.535 10.875 *L 0.00273 *D INVX1
*I *1376:B0 I *C 88.885 10.875 *L 0.00265 *D AOI22X1
*I *1371:A0 I *C 93.525 7.685 *L 0.00268 *D OAI31X1
*I *1380:Y O *C 99.035 12.615 *L 0 *D NOR3BX1

*CAP
1 *699:2 0.000327619
2 *699:3 0.00067708
3 *699:4 0.000371302
4 *699:6 2.18413e-05
5 *699:7 0.00024689
6 *699:9 0.000134667
7 *699:10 0.00024689
8 *699:11 0.000134667
9 *699:13 0.000393143
10 *699:14 0.000393143

*RES
1 *699:15 *1380:Y 1.4
2 *699:14 *699:15 1.4
3 *699:13 *699:14 2.23709
4 *699:11 *699:13 1.4
5 *699:10 *1371:A0 1.4
6 *699:9 *699:11 0.745731
7 *699:7 *699:10 1.36717
8 *699:6 *699:9 1.4
9 *699:5 *1376:B0 1.4
10 *699:4 *699:7 1.4
11 *699:4 *699:6 0.124283
12 *699:3 *699:5 1.4
13 *699:3 *699:4 1.98853
14 *699:2 *699:3 1.86425
15 *699:1 *699:2 1.4
16 *1379:A *699:1 1.4
*END

*D_NET *700 0.00037277

*CONN
*I *1372:B I *C 82.5 10.245 *L 0.00164 *D MXI2XL
*I *1379:Y O *C 84.1625 10.875 *L 0 *D INVX1

*CAP
1 *700:1 3.86975e-07
2 *700:2 4.25673e-06
3 *700:3 3.86975e-06
4 *700:4 0.000131048
5 *700:5 0.000131048
6 *700:6 4.48891e-05
7 *700:7 5.10808e-05
8 *700:8 6.19161e-06

*RES
1 *700:8 *1379:Y 1.4
2 *700:7 *700:8 0.0342865
3 *700:6 *700:7 0.248577
4 *700:5 *700:6 1.4
5 *700:4 *700:5 0.745698
6 *700:3 *700:4 1.4
7 *700:2 *700:3 0.021429
8 *700:1 *700:2 0.0021429
9 *1372:B *700:1 1.4
*END

*D_NET *701 0.000886924

*CONN
*I *1373:A1 I *C 87.435 7.975 *L 0.00274 *D OAI21X1
*I *1376:A1 I *C 88.015 11.165 *L 0.0028 *D AOI22X1
*I *1378:Y O *C 90.045 10.295 *L 0 *D NOR2XL

*CAP
1 *701:1 4.48891e-05
2 *701:2 4.48891e-05
3 *701:3 4.36826e-05
4 *701:4 4.36826e-05
5 *701:5 0.000134667
6 *701:6 0.000202001
7 *701:7 0.000152889
8 *701:8 6.73337e-05
9 *701:9 0.000152889

*RES
1 *701:11 *1378:Y 1.4
2 *701:9 *701:11 1.4
3 *701:8 *1376:A1 1.4
4 *701:7 *701:9 0.869981
5 *701:6 *701:8 0.372865
6 *701:6 *701:7 1.4
7 *701:5 *701:6 0.745731
8 *701:4 *701:5 1.4
9 *701:3 *701:4 0.248566
10 *701:2 *701:3 1.4
11 *701:1 *701:2 0.248577
12 *1373:A1 *701:1 1.4
*END

*D_NET *702 0.00282585

*CONN
*I *1375:AN I *C 85.695 10.585 *L 0.00174 *D NOR2BXL
*I *1373:A0 I *C 87.725 7.685 *L 0.00271 *D OAI21X1
*I *1374:A I *C 92.655 10.875 *L 0.00162 *D NOR2XL
*I *1377:Y O *C 96.425 13.485 *L 0 *D NAND4BXL

*CAP
1 *702:1 6.73337e-05
2 *702:2 6.73337e-05
3 *702:3 0.000152889
4 *702:4 0.000152889
5 *702:5 0.000202001
6 *702:6 4.48891e-05
7 *702:7 0.000157112
8 *702:8 0.000371302
9 *702:10 0.00067708
10 *702:11 0.000305778
11 *702:12 4.48891e-05
12 *702:13 0.00024689
13 *702:14 4.48891e-05
14 *702:15 0.00024689
15 *702:17 2.18413e-05
16 *702:18 2.18413e-05

*RES
1 *702:19 *1377:Y 1.4
2 *702:18 *702:19 1.4
3 *702:17 *702:18 0.124283
4 *702:15 *702:17 1.4
5 *702:14 *1374:A 1.4
6 *702:13 *702:15 1.36717
7 *702:12 *702:14 0.248577
8 *702:11 *702:13 1.4
9 *702:10 *702:12 1.4
10 *702:10 *702:11 1.73996
11 *702:8 *702:10 2.11281
12 *702:7 *1373:A0 1.4
13 *702:6 *702:8 1.4
14 *702:5 *702:7 0.870019
15 *702:5 *702:6 0.248577
16 *702:4 *702:5 1.4
17 *702:3 *702:4 0.869981
18 *702:2 *702:3 1.4
19 *702:1 *702:2 0.372865
20 *1375:AN *702:1 1.4
*END

*D_NET *703 0.000757083

*CONN
*I *1373:B0 I *C 86.855 7.685 *L 0.0028 *D OAI21X1
*I *1376:Y O *C 88.305 11.165 *L 0 *D AOI22X1

*CAP
1 *703:1 4.48891e-05
2 *703:2 4.48891e-05
3 *703:3 0.000109206
4 *703:4 0.000109206
5 *703:5 0.000224446
6 *703:6 0.000224446

*RES
1 *703:6 *1376:Y 1.4
2 *703:5 *703:6 1.24288
3 *703:4 *703:5 1.4
4 *703:3 *703:4 0.621415
5 *703:2 *703:3 1.4
6 *703:1 *703:2 0.248577
7 *1373:B0 *703:1 1.4
*END

*D_NET *704 0.000189435

*CONN
*I *1372:A I *C 83.665 10.585 *L 0.0017 *D MXI2XL
*I *1375:Y O *C 84.86 10.645 *L 0 *D NOR2BXL

*CAP
1 *704:2 8.73651e-05
2 *704:3 8.73651e-05
3 *704:4 4.6437e-06
4 *704:5 7.35253e-06
5 *704:6 2.70883e-06

*RES
1 *704:6 *1375:Y 1.4
2 *704:5 *704:6 0.0150003
3 *704:4 *704:5 0.0257149
4 *704:3 *704:4 1.4
5 *704:2 *704:3 0.497132
6 *704:1 *704:2 1.4
7 *1372:A *704:1 1.4
*END

*D_NET *705 0.00053505

*CONN
*I *1371:A2 I *C 92.365 7.685 *L 0.00279 *D OAI31X1
*I *1374:Y O *C 93.235 10.295 *L 0 *D NOR2XL

*CAP
1 *705:1 4.48891e-05
2 *705:2 4.48891e-05
3 *705:3 6.55238e-05
4 *705:4 6.55238e-05
5 *705:5 0.000157112
6 *705:6 0.000157112

*RES
1 *705:6 *1374:Y 1.4
2 *705:5 *705:6 0.870019
3 *705:4 *705:5 1.4
4 *705:3 *705:4 0.372849
5 *705:2 *705:3 1.4
6 *705:1 *705:2 0.248577
7 *1371:A2 *705:1 1.4
*END

*D_NET *706 0.000526604

*CONN
*I *1370:D I *C 83.665 7.975 *L 0.00183 *D SDFFQX1
*I *1373:Y O *C 86.565 7.395 *L 0 *D OAI21X1

*CAP
1 *706:2 0.000218413
2 *706:3 0.000218413
3 *706:4 4.48891e-05
4 *706:5 4.48891e-05

*RES
1 *706:5 *1373:Y 1.4
2 *706:4 *706:5 0.248577
3 *706:3 *706:4 1.4
4 *706:2 *706:3 1.24283
5 *706:1 *706:2 1.4
6 *1370:D *706:1 1.4
*END

*D_NET *707 0.000805591

*CONN
*I *1368:D I *C 83.955 15.805 *L 0.00183 *D SDFFQX1
*I *1372:Y O *C 83.375 11.165 *L 0 *D MXI2XL

*CAP
1 *707:2 2.18413e-05
2 *707:3 2.18413e-05
3 *707:4 0.000359113
4 *707:5 0.000359113
5 *707:6 2.18413e-05
6 *707:7 2.18413e-05

*RES
1 *707:8 *1372:Y 1.4
2 *707:7 *707:8 1.4
3 *707:6 *707:7 0.124283
4 *707:5 *707:6 1.4
5 *707:4 *707:5 1.98862
6 *707:3 *707:4 1.4
7 *707:2 *707:3 0.124283
8 *707:1 *707:2 1.4
9 *1368:D *707:1 1.4
*END

*D_NET *708 0.000395556

*CONN
*I *1369:B0 I *C 89.755 7.975 *L 0.00273 *D OAI2BB1X1
*I *1371:Y O *C 91.785 7.395 *L 0 *D OAI31X1

*CAP
1 *708:1 4.48891e-05
2 *708:2 4.48891e-05
3 *708:3 0.000152889
4 *708:4 0.000152889

*RES
1 *708:5 *1371:Y 1.4
2 *708:4 *708:5 1.4
3 *708:3 *708:4 0.869981
4 *708:2 *708:3 1.4
5 *708:1 *708:2 0.248577
6 *1369:B0 *708:1 1.4
*END

*D_NET *709 0.000883304

*CONN
*I *1367:D I *C 85.405 5.365 *L 0.00183 *D SDFFQX1
*I *1369:Y O *C 88.885 7.685 *L 0 *D OAI2BB1X1

*CAP
1 *709:2 0.000262095
2 *709:3 0.000262095
3 *709:4 0.000179557
4 *709:5 0.000179557

*RES
1 *709:5 *1369:Y 1.4
2 *709:4 *709:5 0.994308
3 *709:3 *709:4 1.4
4 *709:2 *709:3 1.4914
5 *709:1 *709:2 1.4
6 *1367:D *709:1 1.4
*END

*D_NET *710 0.000263302

*CONN
*I *1364:A I *C 94.105 13.195 *L 0.00157 *D NAND2XL
*I *1365:Y O *C 92.655 13.485 *L 0 *D NAND3X1

*CAP
1 *710:1 2.24446e-05
2 *710:2 2.24446e-05
3 *710:3 0.000109206
4 *710:4 0.000109206

*RES
1 *710:5 *1365:Y 1.4
2 *710:4 *710:5 1.4
3 *710:3 *710:4 0.621415
4 *710:2 *710:3 1.4
5 *710:1 *710:2 0.124288
6 *1364:A *710:1 1.4
*END

*D_NET *711 0.000624713

*CONN
*I *1360:A0 I *C 99.905 10.875 *L 0.00155 *D AO21X1
*I *1362:Y O *C 97.9575 10.875 *L 0 *D CLKINVX1
*I *1361:B0 I *C 95.845 10.875 *L 0.00282 *D OAI31X1

*CAP
1 *711:2 0.000152889
2 *711:3 0.000305778
3 *711:4 6.57858e-06
4 *711:5 0.000152889
5 *711:6 6.57858e-06

*RES
1 *711:7 *1361:B0 1.4
2 *711:6 *1362:Y 1.4
3 *711:5 *711:7 1.4
4 *711:4 *711:6 0.0364294
5 *711:3 *711:5 0.869981
6 *711:3 *711:4 1.4
7 *711:2 *711:3 0.869981
8 *711:1 *711:2 1.4
9 *1360:A0 *711:1 1.4
*END

*D_NET *712 0.000897783

*CONN
*I *1359:D I *C 96.135 5.365 *L 0.00183 *D SDFFQX1
*I *1361:Y O *C 96.135 11.165 *L 0 *D OAI31X1

*CAP
1 *712:1 0.000448891
2 *712:2 0.000448891

*RES
1 *712:2 *1361:Y 1.4
2 *712:1 *712:2 2.48577
3 *1359:D *712:1 1.4
*END

*D_NET *713 0.00114902

*CONN
*I *1358:D I *C 97.005 7.975 *L 0.00183 *D SDFFQX1
*I *1360:Y O *C 101.355 11.165 *L 0 *D AO21X1

*CAP
1 *713:1 2.24446e-05
2 *713:2 2.24446e-05
3 *713:3 0.000283937
4 *713:4 0.000283937
5 *713:5 0.000224446
6 *713:6 0.000224446
7 *713:7 4.36826e-05
8 *713:8 4.36826e-05

*RES
1 *713:9 *1360:Y 1.4
2 *713:8 *713:9 1.4
3 *713:7 *713:8 0.248566
4 *713:6 *713:7 1.4
5 *713:5 *713:6 1.24288
6 *713:4 *713:5 1.4
7 *713:3 *713:4 1.61568
8 *713:2 *713:3 1.4
9 *713:1 *713:2 0.124288
10 *1358:D *713:1 1.4
*END

*D_NET *714 0.00389716

*CONN
*I *1375:B I *C 85.115 10.875 *L 0.00175 *D NOR2BXL
*I *1376:A0 I *C 87.725 10.585 *L 0.00264 *D AOI22X1
*I *1371:A1 I *C 92.655 7.975 *L 0.00267 *D OAI31X1
*I *1369:A0N I *C 90.045 7.685 *L 0.00173 *D OAI2BB1X1
*I *1362:A I *C 97.585 10.875 *L 0.00273 *D CLKINVX1
*I *1363:Y O *C 97.875 15.515 *L 0 *D NOR2XL

*CAP
1 *714:1 4.48891e-05
2 *714:2 4.48891e-05
3 *714:3 0.000196572
4 *714:4 0.000305778
5 *714:5 0.000109206
6 *714:6 6.73337e-05
7 *714:7 0.000269335
8 *714:8 6.73337e-05
9 *714:9 0.000269335
10 *714:11 6.55238e-05
11 *714:12 0.000262095
12 *714:13 0.000567873
13 *714:14 2.24446e-05
14 *714:15 0.000371302
15 *714:17 2.24446e-05
16 *714:18 0.000224446
17 *714:21 0.000583559
18 *714:22 0.000359113
19 *714:24 2.18413e-05
20 *714:25 2.18413e-05

*RES
1 *714:26 *1363:Y 1.4
2 *714:25 *714:26 1.4
3 *714:24 *714:25 0.124283
4 *714:22 *714:24 1.4
5 *714:21 *1362:A 1.4
6 *714:21 *714:22 1.98862
7 *714:18 *714:21 1.24288
8 *714:17 *1369:A0N 1.4
9 *714:16 *1371:A1 1.4
10 *714:15 *714:18 1.4
11 *714:14 *714:17 0.124288
12 *714:13 *714:16 1.4
13 *714:13 *714:15 2.11281
14 *714:12 *714:14 1.4
15 *714:12 *714:13 1.11855
16 *714:11 *714:12 0.372849
17 *714:9 *714:11 1.4
18 *714:8 *1376:A0 1.4
19 *714:7 *714:9 1.49146
20 *714:6 *714:8 0.372865
21 *714:5 *714:7 1.4
22 *714:4 *714:6 1.4
23 *714:4 *714:5 0.621415
24 *714:3 *714:4 1.11855
25 *714:2 *714:3 1.4
26 *714:1 *714:2 0.248577
27 *1375:B *714:1 1.4
*END

*D_NET *715 0.00102837

*CONN
*I *1377:B I *C 97.005 12.905 *L 0.00163 *D NAND4BXL
*I *1357:A I *C 95.255 15.8675 *L 0.00163 *D INVXL
*I *1366:Y O *C 93.235 15.515 *L 0 *D OR3X1

*CAP
1 *715:1 2.24446e-05
2 *715:2 2.24446e-05
3 *715:3 0.000131048
4 *715:4 0.000131048
5 *715:5 0.000179557
6 *715:6 0.000207032
7 *715:7 2.82492e-05
8 *715:8 0.000152889
9 *715:9 7.73951e-07
10 *715:10 0.000152889

*RES
1 *715:12 *1366:Y 1.4
2 *715:10 *715:12 1.4
3 *715:9 *1357:A 1.4
4 *715:8 *715:10 0.869981
5 *715:7 *715:9 0.00428581
6 *715:6 *715:8 1.4
7 *715:6 *715:7 0.152146
8 *715:5 *715:6 0.994308
9 *715:4 *715:5 1.4
10 *715:3 *715:4 0.745698
11 *715:2 *715:3 1.4
12 *715:1 *715:2 0.124288
13 *1377:B *715:1 1.4
*END

*D_NET *716 0.00168045

*CONN
*I *1363:B I *C 97.585 15.805 *L 0.00171 *D NOR2XL
*I *1380:AN I *C 100.485 12.905 *L 0.0018 *D NOR3BX1
*I *1377:D I *C 96.135 12.905 *L 0.00174 *D NAND4BXL
*I *1364:Y O *C 94.685 12.615 *L 0 *D NAND2XL

*CAP
1 *716:2 2.18413e-05
2 *716:3 2.18413e-05
3 *716:4 0.000224446
4 *716:5 0.000224446
5 *716:6 0.000327619
6 *716:7 0.000196572
7 *716:8 0.000131048
8 *716:10 6.73337e-05
9 *716:12 6.73337e-05
10 *716:14 0.000109206
11 *716:15 0.000109206
12 *716:16 8.97783e-05
13 *716:17 8.97783e-05

*RES
1 *716:17 *1364:Y 1.4
2 *716:16 *716:17 0.497154
3 *716:15 *716:16 1.4
4 *716:14 *716:15 0.621415
5 *716:12 *716:14 1.4
6 *716:10 *1377:D 1.4
7 *716:10 *716:12 0.372865
8 *716:9 *1380:AN 1.4
9 *716:8 *716:10 1.4
10 *716:7 *716:9 1.4
11 *716:6 *716:8 0.745698
12 *716:6 *716:7 1.11855
13 *716:5 *716:6 1.4
14 *716:4 *716:5 1.24288
15 *716:3 *716:4 1.4
16 *716:2 *716:3 0.124283
17 *716:1 *716:2 1.4
18 *1363:B *716:1 1.4
*END

*D_NET *717 0.0039612

*CONN
*I *1390:A0 I *C 8.555 41.905 *L 0.00158 *D AO22XL
*I *1391:A0 I *C 7.975 36.685 *L 0.00158 *D AO22XL
*I *1388:A0 I *C 7.105 41.905 *L 0.00158 *D AO22XL
*I *1389:A0 I *C 13.485 36.685 *L 0.00158 *D AO22XL
*I *1392:Y O *C 19.575 31.175 *L 0 *D NOR2XL

*CAP
1 *717:2 4.73985e-05
2 *717:3 0.000118496
3 *717:4 0.000421908
4 *717:5 7.10977e-05
5 *717:6 0.000468787
6 *717:9 4.68787e-05
7 *717:11 0.000450285
8 *717:12 0.000497684
9 *717:13 4.73985e-05
10 *717:14 4.68787e-05
11 *717:15 0.000398469
12 *717:16 4.68787e-05
13 *717:17 0.000398469
14 *717:19 0.000450285
15 *717:20 0.000450285

*RES
1 *717:21 *1392:Y 1.4
2 *717:20 *717:21 1.4
3 *717:19 *717:20 2.36149
4 *717:17 *717:19 1.4
5 *717:16 *1389:A0 1.4
6 *717:15 *717:17 2.11281
7 *717:14 *717:16 0.248565
8 *717:13 *717:15 1.4
9 *717:12 *717:14 1.4
10 *717:12 *717:13 0.248577
11 *717:11 *717:12 2.36149
12 *717:9 *717:11 1.4
13 *717:7 *1388:A0 1.4
14 *717:6 *717:9 0.248565
15 *717:6 *1391:A0 1.4
16 *717:5 *717:7 1.4
17 *717:4 *717:6 2.23709
18 *717:3 *717:5 0.372866
19 *717:3 *717:4 1.4
20 *717:2 *717:3 0.248577
21 *717:1 *717:2 1.4
22 *1390:A0 *717:1 1.4
*END

*D_NET *718 0.000563064

*CONN
*I *1387:D I *C 6.525 34.075 *L 0.00183 *D SDFFQX1
*I *1391:Y O *C 6.235 37.265 *L 0 *D AO22XL

*CAP
1 *718:2 2.36992e-05
2 *718:3 2.36992e-05
3 *718:4 0.000257833
4 *718:5 0.000257833

*RES
1 *718:5 *1391:Y 1.4
2 *718:4 *718:5 1.36711
3 *718:3 *718:4 1.4
4 *718:2 *718:3 0.124289
5 *718:1 *718:2 1.4
6 *1387:D *718:1 1.4
*END

*D_NET *719 0.000470346

*CONN
*I *1386:D I *C 9.425 44.515 *L 0.00183 *D SDFFQX1
*I *1390:Y O *C 10.295 42.485 *L 0 *D AO22XL

*CAP
1 *719:2 2.36992e-05
2 *719:3 2.36992e-05
3 *719:4 0.000164075
4 *719:5 0.000164075
5 *719:6 4.73985e-05
6 *719:7 4.73985e-05

*RES
1 *719:8 *1390:Y 1.4
2 *719:7 *719:8 1.4
3 *719:6 *719:7 0.248577
4 *719:5 *719:6 1.4
5 *719:4 *719:5 0.869979
6 *719:3 *719:4 1.4
7 *719:2 *719:3 0.124289
8 *719:1 *719:2 1.4
9 *1386:D *719:1 1.4
*END

*D_NET *720 0.000984973

*CONN
*I *1384:D I *C 11.455 31.465 *L 0.00289 *D SDFFHQX4
*I *1389:Y O *C 11.745 37.265 *L 0 *D AO22XL

*CAP
1 *720:1 0.000468787
2 *720:2 0.000468787
3 *720:3 2.36992e-05
4 *720:4 2.36992e-05

*RES
1 *720:5 *1389:Y 1.4
2 *720:4 *720:5 1.4
3 *720:3 *720:4 0.124289
4 *720:2 *720:3 1.4
5 *720:1 *720:2 2.48565
6 *1384:D *720:1 1.4
*END

*D_NET *721 0.00070526

*CONN
*I *1385:D I *C 6.525 39.295 *L 0.00183 *D SDFFQX1
*I *1388:Y O *C 5.365 42.485 *L 0 *D AO22XL

*CAP
1 *721:2 2.36992e-05
2 *721:3 2.36992e-05
3 *721:4 0.000257833
4 *721:5 0.000257833
5 *721:6 7.10977e-05
6 *721:7 7.10977e-05

*RES
1 *721:8 *1388:Y 1.4
2 *721:7 *721:8 1.4
3 *721:6 *721:7 0.372866
4 *721:5 *721:6 1.4
5 *721:4 *721:5 1.36711
6 *721:3 *721:4 1.4
7 *721:2 *721:3 0.124289
8 *721:1 *721:2 1.4
9 *1385:D *721:1 1.4
*END

*D_NET *722 0.0171907

*CONN
*I *1388:B1 I *C 6.525 41.905 *L 0.00171 *D AO22XL
*I *1391:B1 I *C 7.395 36.685 *L 0.00171 *D AO22XL
*I *1390:B1 I *C 9.135 41.905 *L 0.00171 *D AO22XL
*I *1389:B1 I *C 12.905 36.685 *L 0.00171 *D AO22XL
*I *1393:Y O *C 74.105 28.565 *L 0 *D NOR2BX1
*I *1383:D I *C 81.055 23.635 *L 0.00183 *D SDFFQX1

*CAP
1 *722:1 4.68787e-05
2 *722:2 4.68787e-05
3 *722:3 7.10977e-05
4 *722:4 7.10977e-05
5 *722:5 4.68787e-05
6 *722:6 0.000468787
7 *722:7 0.000142195
8 *722:8 0.000421908
9 *722:9 0.000142195
10 *722:10 0.000450285
11 *722:13 0.00619002
12 *722:15 0.00573974
13 *722:17 0.000672208
14 *722:19 0.000673036
15 *722:20 8.27843e-07
16 *722:21 2.76379e-05
17 *722:23 2.76379e-05
18 *722:24 0.000405166
19 *722:25 0.000405166
20 *722:26 0.000548104
21 *722:27 0.000548104
22 *722:28 2.24446e-05
23 *722:29 2.24446e-05

*RES
1 *722:29 *1383:D 1.4
2 *722:28 *722:29 0.124288
3 *722:27 *722:28 1.4
4 *722:26 *722:27 2.8585
5 *722:25 *722:26 1.4
6 *722:24 *722:25 2.23715
7 *722:23 *722:24 1.4
8 *722:21 *722:23 0.124288
9 *722:20 *1393:Y 1.4
10 *722:19 *722:21 1.4
11 *722:19 *722:20 0.00428561
12 *722:17 *722:19 3.47991
13 *722:16 *1389:B1 1.4
14 *722:15 *722:17 1.4
15 *722:13 *722:16 1.4
16 *722:13 *722:15 26.2249
17 *722:12 *1390:B1 1.4
18 *722:10 *722:13 2.36149
19 *722:9 *722:12 1.4
20 *722:8 *1391:B1 1.4
21 *722:8 *722:10 1.4
22 *722:7 *722:9 0.745732
23 *722:6 *722:8 2.23709
24 *722:6 *722:7 1.4
25 *722:5 *722:6 0.248565
26 *722:4 *722:5 1.4
27 *722:3 *722:4 0.372866
28 *722:2 *722:3 1.4
29 *722:1 *722:2 0.248565
30 *1388:B1 *722:1 1.4
*END

