*SPEF "IEEE 1481-1998"
*DESIGN "toll_gate"
*DATE "Mon Nov 17 02:20:11 2025"
*VENDOR "Cadence Design Systems, Inc."
*PROGRAM "Innovus"
*VERSION "20.10-p004_1"
*DESIGN_FLOW "PIN_CAP NONE" "NAME_SCOPE LOCAL"
*DIVIDER /
*DELIMITER :
*BUS_DELIMITER []
*T_UNIT 1 NS
*C_UNIT 1 PF
*R_UNIT 1 OHM
*L_UNIT 1 HENRY

// MMMC spef file for corner 'default_rc_corner'

*NAME_MAP

*1 SPCASCAN_N1
*2 SPCASCAN_N0
*3 clk
*4 reset
*5 sensor_vehicle_enter
*6 sensor_vehicle_exit
*7 scan_en
*8 DFT_sdi_1
*9 DFT_sdi_2
*10 vehicle_id_in[3]
*11 vehicle_id_in[2]
*12 vehicle_id_in[1]
*13 vehicle_id_in[0]
*14 barrier_open_cmd
*15 barrier_close_cmd
*16 DFT_sdo_1
*17 DFT_sdo_2
*18 led_status[1]
*19 led_status[0]
*20 display_out[6]
*21 display_out[5]
*22 display_out[3]
*23 display_out[2]
*24 display_out[1]
*25 display_out[0]
*26 id_to_check[3]
*27 id_to_check[2]
*28 id_to_check[1]
*29 id_to_check[0]
*30 state[1]
*31 state[0]
*32 charge_done
*33 gate_is_closed
*34 id_valid
*35 n_17
*36 n_23
*37 n_25
*38 n_26
*39 n_27
*40 n_28
*41 n_29
*42 n_32
*43 n_33
*44 n_35
*45 n_36
*46 n_39
*47 n_40
*48 n_41
*49 n_42
*50 n_43
*51 n_44
*52 n_45
*53 n_46
*54 n_48
*55 n_49
*56 n_50
*57 n_51
*58 n_56
*59 n_64
*60 n_65
*61 n_68
*62 n_71
*63 n_72
*64 n_82
*65 sufficient_balance
*66 u_account_balance/balance_db\[0\][15]
*67 u_account_balance/balance_db\[0\][14]
*68 u_account_balance/balance_db\[0\][13]
*69 u_account_balance/balance_db\[0\][12]
*70 u_account_balance/balance_db\[0\][11]
*71 u_account_balance/balance_db\[0\][10]
*72 u_account_balance/balance_db\[0\][9]
*73 u_account_balance/balance_db\[0\][8]
*74 u_account_balance/balance_db\[0\][7]
*75 u_account_balance/balance_db\[0\][6]
*76 u_account_balance/balance_db\[0\][5]
*77 u_account_balance/balance_db\[0\][4]
*78 u_account_balance/balance_db\[0\][3]
*79 u_account_balance/balance_db\[0\][2]
*80 u_account_balance/balance_db\[0\][1]
*81 u_account_balance/balance_db\[4\][15]
*82 u_account_balance/balance_db\[4\][14]
*83 u_account_balance/balance_db\[4\][13]
*84 u_account_balance/balance_db\[4\][12]
*85 u_account_balance/balance_db\[4\][11]
*86 u_account_balance/balance_db\[4\][10]
*87 u_account_balance/balance_db\[4\][9]
*88 u_account_balance/balance_db\[4\][8]
*89 u_account_balance/balance_db\[4\][7]
*90 u_account_balance/balance_db\[4\][6]
*91 u_account_balance/balance_db\[4\][5]
*92 u_account_balance/balance_db\[4\][4]
*93 u_account_balance/balance_db\[4\][3]
*94 u_account_balance/balance_db\[4\][2]
*95 u_account_balance/balance_db\[4\][1]
*96 u_account_balance/balance_db\[5\][15]
*97 u_account_balance/balance_db\[5\][14]
*98 u_account_balance/balance_db\[5\][13]
*99 u_account_balance/balance_db\[5\][12]
*100 u_account_balance/balance_db\[5\][11]
*101 u_account_balance/balance_db\[5\][10]
*102 u_account_balance/balance_db\[5\][9]
*103 u_account_balance/balance_db\[5\][8]
*104 u_account_balance/balance_db\[5\][7]
*105 u_account_balance/balance_db\[5\][6]
*106 u_account_balance/balance_db\[5\][5]
*107 u_account_balance/balance_db\[5\][4]
*108 u_account_balance/balance_db\[5\][3]
*109 u_account_balance/balance_db\[5\][2]
*110 u_account_balance/balance_db\[5\][1]
*111 u_account_balance/balance_db\[6\][15]
*112 u_account_balance/balance_db\[6\][14]
*113 u_account_balance/balance_db\[6\][13]
*114 u_account_balance/balance_db\[6\][12]
*115 u_account_balance/balance_db\[6\][11]
*116 u_account_balance/balance_db\[6\][10]
*117 u_account_balance/balance_db\[6\][9]
*118 u_account_balance/balance_db\[6\][8]
*119 u_account_balance/balance_db\[6\][7]
*120 u_account_balance/balance_db\[6\][6]
*121 u_account_balance/balance_db\[6\][5]
*122 u_account_balance/balance_db\[6\][4]
*123 u_account_balance/balance_db\[6\][3]
*124 u_account_balance/balance_db\[6\][2]
*125 u_account_balance/balance_db\[6\][1]
*126 u_account_balance/balance_db\[7\][15]
*127 u_account_balance/balance_db\[7\][14]
*128 u_account_balance/balance_db\[7\][13]
*129 u_account_balance/balance_db\[7\][12]
*130 u_account_balance/balance_db\[7\][11]
*131 u_account_balance/balance_db\[7\][10]
*132 u_account_balance/balance_db\[7\][9]
*133 u_account_balance/balance_db\[7\][8]
*134 u_account_balance/balance_db\[7\][7]
*135 u_account_balance/balance_db\[7\][6]
*136 u_account_balance/balance_db\[7\][5]
*137 u_account_balance/balance_db\[7\][4]
*138 u_account_balance/balance_db\[7\][3]
*139 u_account_balance/balance_db\[7\][2]
*140 u_account_balance/balance_db\[7\][1]
*141 u_account_balance/balance_db\[8\][15]
*142 u_account_balance/balance_db\[8\][14]
*143 u_account_balance/balance_db\[8\][13]
*144 u_account_balance/balance_db\[8\][12]
*145 u_account_balance/balance_db\[8\][11]
*146 u_account_balance/balance_db\[8\][10]
*147 u_account_balance/balance_db\[8\][9]
*148 u_account_balance/balance_db\[8\][8]
*149 u_account_balance/balance_db\[8\][7]
*150 u_account_balance/balance_db\[8\][6]
*151 u_account_balance/balance_db\[8\][5]
*152 u_account_balance/balance_db\[8\][4]
*153 u_account_balance/balance_db\[8\][3]
*154 u_account_balance/balance_db\[8\][2]
*155 u_account_balance/balance_db\[8\][1]
*156 u_account_balance/balance_db\[9\][15]
*157 u_account_balance/balance_db\[9\][14]
*158 u_account_balance/balance_db\[9\][13]
*159 u_account_balance/balance_db\[9\][12]
*160 u_account_balance/balance_db\[9\][11]
*161 u_account_balance/balance_db\[9\][10]
*162 u_account_balance/balance_db\[9\][9]
*163 u_account_balance/balance_db\[9\][8]
*164 u_account_balance/balance_db\[9\][7]
*165 u_account_balance/balance_db\[9\][6]
*166 u_account_balance/balance_db\[9\][5]
*167 u_account_balance/balance_db\[9\][4]
*168 u_account_balance/balance_db\[9\][3]
*169 u_account_balance/balance_db\[9\][2]
*170 u_account_balance/balance_db\[9\][1]
*171 u_account_balance/balance_db\[10\][15]
*172 u_account_balance/balance_db\[10\][14]
*173 u_account_balance/balance_db\[10\][13]
*174 u_account_balance/balance_db\[10\][12]
*175 u_account_balance/balance_db\[10\][11]
*176 u_account_balance/balance_db\[10\][10]
*177 u_account_balance/balance_db\[10\][9]
*178 u_account_balance/balance_db\[10\][8]
*179 u_account_balance/balance_db\[10\][7]
*180 u_account_balance/balance_db\[10\][6]
*181 u_account_balance/balance_db\[10\][5]
*182 u_account_balance/balance_db\[10\][4]
*183 u_account_balance/balance_db\[10\][3]
*184 u_account_balance/balance_db\[10\][2]
*185 u_account_balance/balance_db\[10\][1]
*186 u_account_balance/balance_db\[11\][15]
*187 u_account_balance/balance_db\[11\][14]
*188 u_account_balance/balance_db\[11\][13]
*189 u_account_balance/balance_db\[11\][12]
*190 u_account_balance/balance_db\[11\][11]
*191 u_account_balance/balance_db\[11\][10]
*192 u_account_balance/balance_db\[11\][9]
*193 u_account_balance/balance_db\[11\][8]
*194 u_account_balance/balance_db\[11\][7]
*195 u_account_balance/balance_db\[11\][6]
*196 u_account_balance/balance_db\[11\][5]
*197 u_account_balance/balance_db\[11\][4]
*198 u_account_balance/balance_db\[11\][3]
*199 u_account_balance/balance_db\[11\][2]
*200 u_account_balance/balance_db\[11\][1]
*201 u_account_balance/balance_db\[12\][15]
*202 u_account_balance/balance_db\[12\][14]
*203 u_account_balance/balance_db\[12\][13]
*204 u_account_balance/balance_db\[12\][12]
*205 u_account_balance/balance_db\[12\][11]
*206 u_account_balance/balance_db\[12\][10]
*207 u_account_balance/balance_db\[12\][9]
*208 u_account_balance/balance_db\[12\][8]
*209 u_account_balance/balance_db\[12\][7]
*210 u_account_balance/balance_db\[12\][6]
*211 u_account_balance/balance_db\[12\][5]
*212 u_account_balance/balance_db\[12\][4]
*213 u_account_balance/balance_db\[12\][3]
*214 u_account_balance/balance_db\[12\][2]
*215 u_account_balance/balance_db\[12\][1]
*216 u_account_balance/balance_db\[13\][15]
*217 u_account_balance/balance_db\[13\][14]
*218 u_account_balance/balance_db\[13\][13]
*219 u_account_balance/balance_db\[13\][12]
*220 u_account_balance/balance_db\[13\][11]
*221 u_account_balance/balance_db\[13\][10]
*222 u_account_balance/balance_db\[13\][9]
*223 u_account_balance/balance_db\[13\][8]
*224 u_account_balance/balance_db\[13\][7]
*225 u_account_balance/balance_db\[13\][6]
*226 u_account_balance/balance_db\[13\][5]
*227 u_account_balance/balance_db\[13\][4]
*228 u_account_balance/balance_db\[13\][3]
*229 u_account_balance/balance_db\[13\][2]
*230 u_account_balance/balance_db\[13\][1]
*231 u_account_balance/balance_db\[14\][15]
*232 u_account_balance/balance_db\[14\][14]
*233 u_account_balance/balance_db\[14\][13]
*234 u_account_balance/balance_db\[14\][12]
*235 u_account_balance/balance_db\[14\][11]
*236 u_account_balance/balance_db\[14\][10]
*237 u_account_balance/balance_db\[14\][9]
*238 u_account_balance/balance_db\[14\][8]
*239 u_account_balance/balance_db\[14\][7]
*240 u_account_balance/balance_db\[14\][6]
*241 u_account_balance/balance_db\[14\][5]
*242 u_account_balance/balance_db\[14\][4]
*243 u_account_balance/balance_db\[14\][3]
*244 u_account_balance/balance_db\[14\][2]
*245 u_account_balance/balance_db\[14\][1]
*246 u_account_balance/balance_db\[15\][15]
*247 u_account_balance/balance_db\[15\][14]
*248 u_account_balance/balance_db\[15\][13]
*249 u_account_balance/balance_db\[15\][12]
*250 u_account_balance/balance_db\[15\][11]
*251 u_account_balance/balance_db\[15\][10]
*252 u_account_balance/balance_db\[15\][9]
*253 u_account_balance/balance_db\[15\][8]
*254 u_account_balance/balance_db\[15\][7]
*255 u_account_balance/balance_db\[15\][6]
*256 u_account_balance/balance_db\[15\][5]
*257 u_account_balance/balance_db\[15\][4]
*258 u_account_balance/balance_db\[15\][3]
*259 u_account_balance/balance_db\[15\][2]
*260 u_account_balance/balance_db\[15\][1]
*261 u_account_balance/balance_db\[3\][14]
*262 u_account_balance/balance_db\[3\][13]
*263 u_account_balance/balance_db\[3\][12]
*264 u_account_balance/balance_db\[3\][11]
*265 u_account_balance/balance_db\[3\][10]
*266 u_account_balance/balance_db\[3\][9]
*267 u_account_balance/balance_db\[3\][8]
*268 u_account_balance/balance_db\[3\][6]
*269 u_account_balance/balance_db\[3\][5]
*270 u_account_balance/balance_db\[3\][4]
*271 u_account_balance/balance_db\[3\][3]
*272 u_account_balance/balance_db\[3\][1]
*273 u_account_balance/balance_db\[1\][14]
*274 u_account_balance/balance_db\[1\][13]
*275 u_account_balance/balance_db\[1\][12]
*276 u_account_balance/balance_db\[1\][11]
*277 u_account_balance/balance_db\[1\][10]
*278 u_account_balance/balance_db\[1\][9]
*279 u_account_balance/balance_db\[1\][8]
*280 u_account_balance/balance_db\[1\][7]
*281 u_account_balance/balance_db\[1\][6]
*282 u_account_balance/balance_db\[1\][5]
*283 u_account_balance/balance_db\[1\][4]
*284 u_account_balance/balance_db\[1\][3]
*285 u_account_balance/balance_db\[1\][2]
*286 u_account_balance/balance_db\[1\][1]
*287 u_account_balance/balance_db\[2\][13]
*288 u_account_balance/balance_db\[2\][12]
*289 u_account_balance/balance_db\[2\][11]
*290 u_account_balance/balance_db\[2\][10]
*291 u_account_balance/balance_db\[2\][9]
*292 u_account_balance/balance_db\[2\][8]
*293 u_account_balance/balance_db\[2\][7]
*294 u_account_balance/balance_db\[2\][6]
*295 u_account_balance/balance_db\[2\][5]
*296 u_account_balance/balance_db\[2\][4]
*297 u_account_balance/balance_db\[2\][3]
*298 u_account_balance/balance_db\[2\][2]
*299 u_account_balance/balance_db\[2\][1]
*300 u_account_balance/n_6
*301 u_account_balance/n_80
*302 u_account_balance/n_96
*303 u_account_balance/n_115
*304 u_account_balance/n_133
*305 u_account_balance/n_146
*306 u_account_balance/n_149
*307 u_account_balance/n_151
*308 u_account_balance/n_201
*309 u_account_balance/n_208
*310 u_account_balance/n_232
*311 u_account_balance/n_242
*312 u_account_balance/n_256
*313 u_account_balance/n_279
*314 u_account_balance/n_368
*315 u_account_balance/n_369
*316 u_account_balance/n_370
*317 u_account_balance/n_383
*318 u_account_balance/n_393
*319 u_account_balance/n_396
*320 u_account_balance/n_397
*321 u_account_balance/n_409
*322 u_account_balance/n_410
*323 u_account_balance/n_411
*324 u_account_balance/n_412
*325 u_account_balance/n_413
*326 u_account_balance/n_414
*327 u_account_balance/n_415
*328 u_account_balance/n_416
*329 u_account_balance/n_417
*330 u_account_balance/n_418
*331 u_account_balance/n_419
*332 u_account_balance/n_420
*333 u_account_balance/n_421
*334 u_account_balance/n_422
*335 u_account_balance/n_423
*336 u_account_balance/n_424
*337 u_account_balance/n_425
*338 u_account_balance/n_426
*339 u_account_balance/n_427
*340 u_account_balance/n_428
*341 u_account_balance/n_429
*342 u_account_balance/n_430
*343 u_account_balance/n_431
*344 u_account_balance/n_432
*345 u_account_balance/n_433
*346 u_account_balance/n_434
*347 u_account_balance/n_435
*348 u_account_balance/n_436
*349 u_account_balance/n_437
*350 u_account_balance/n_438
*351 u_account_balance/n_439
*352 u_account_balance/n_440
*353 u_account_balance/n_441
*354 u_account_balance/n_442
*355 u_account_balance/n_443
*356 u_account_balance/n_444
*357 u_account_balance/n_445
*358 u_account_balance/n_446
*359 u_account_balance/n_448
*360 u_account_balance/n_449
*361 u_account_balance/n_450
*362 u_account_balance/n_451
*363 u_account_balance/n_452
*364 u_account_balance/n_453
*365 u_account_balance/n_454
*366 u_account_balance/n_455
*367 u_account_balance/n_456
*368 u_account_balance/n_457
*369 u_account_balance/n_458
*370 u_account_balance/n_459
*371 u_account_balance/n_460
*372 u_account_balance/n_461
*373 u_account_balance/n_463
*374 u_account_balance/n_464
*375 u_account_balance/n_465
*376 u_account_balance/n_467
*377 u_account_balance/n_468
*378 u_account_balance/n_469
*379 u_account_balance/n_470
*380 u_account_balance/n_471
*381 u_account_balance/n_472
*382 u_account_balance/n_473
*383 u_account_balance/n_474
*384 u_account_balance/n_475
*385 u_account_balance/n_476
*386 u_account_balance/n_477
*387 u_account_balance/n_478
*388 u_account_balance/n_479
*389 u_account_balance/n_480
*390 u_account_balance/n_481
*391 u_account_balance/n_482
*392 u_account_balance/n_483
*393 u_account_balance/n_484
*394 u_account_balance/n_485
*395 u_account_balance/n_487
*396 u_account_balance/n_488
*397 u_account_balance/n_489
*398 u_account_balance/n_490
*399 u_account_balance/n_491
*400 u_account_balance/n_495
*401 u_account_balance/n_496
*402 u_account_balance/n_497
*403 u_account_balance/n_498
*404 u_account_balance/n_499
*405 u_account_balance/n_500
*406 u_account_balance/n_501
*407 u_account_balance/n_502
*408 u_account_balance/n_503
*409 u_account_balance/n_504
*410 u_account_balance/n_506
*411 u_account_balance/n_508
*412 u_account_balance/n_509
*413 u_account_balance/n_510
*414 u_account_balance/n_511
*415 u_account_balance/n_512
*416 u_account_balance/n_514
*417 u_account_balance/n_515
*418 u_account_balance/n_516
*419 u_account_balance/n_517
*420 u_account_balance/n_519
*421 u_account_balance/n_520
*422 u_account_balance/n_521
*423 u_account_balance/n_522
*424 u_account_balance/n_523
*425 u_account_balance/n_524
*426 u_account_balance/n_525
*427 u_account_balance/n_526
*428 u_account_balance/n_527
*429 u_account_balance/n_528
*430 u_account_balance/n_529
*431 u_account_balance/n_530
*432 u_account_balance/n_531
*433 u_account_balance/n_533
*434 u_account_balance/n_534
*435 u_account_balance/n_535
*436 u_account_balance/n_536
*437 u_account_balance/n_537
*438 u_account_balance/n_538
*439 u_account_balance/n_539
*440 u_account_balance/n_540
*441 u_account_balance/n_541
*442 u_account_balance/n_542
*443 u_account_balance/n_543
*444 u_account_balance/n_544
*445 u_account_balance/n_545
*446 u_account_balance/n_546
*447 u_account_balance/n_547
*448 u_account_balance/n_548
*449 u_account_balance/n_549
*450 u_account_balance/n_550
*451 u_account_balance/n_551
*452 u_account_balance/n_552
*453 u_account_balance/n_553
*454 u_account_balance/n_554
*455 u_account_balance/n_555
*456 u_account_balance/n_556
*457 u_account_balance/n_557
*458 u_account_balance/n_558
*459 u_account_balance/n_560
*460 u_account_balance/n_561
*461 u_account_balance/n_562
*462 u_account_balance/n_564
*463 u_account_balance/n_565
*464 u_account_balance/n_566
*465 u_account_balance/n_567
*466 u_account_balance/n_568
*467 u_account_balance/n_570
*468 u_account_balance/n_572
*469 u_account_balance/n_574
*470 u_account_balance/n_575
*471 u_account_balance/n_576
*472 u_account_balance/n_578
*473 u_account_balance/n_579
*474 u_account_balance/n_580
*475 u_account_balance/n_581
*476 u_account_balance/n_582
*477 u_account_balance/n_583
*478 u_account_balance/n_584
*479 u_account_balance/n_585
*480 u_account_balance/n_586
*481 u_account_balance/n_587
*482 u_account_balance/n_588
*483 u_account_balance/n_589
*484 u_account_balance/n_590
*485 u_account_balance/n_591
*486 u_account_balance/n_592
*487 u_account_balance/n_593
*488 u_account_balance/n_594
*489 u_account_balance/n_596
*490 u_account_balance/n_597
*491 u_account_balance/n_598
*492 u_account_balance/n_599
*493 u_account_balance/n_600
*494 u_account_balance/n_601
*495 u_account_balance/n_602
*496 u_account_balance/n_603
*497 u_account_balance/n_604
*498 u_account_balance/n_605
*499 u_account_balance/n_606
*500 u_account_balance/n_607
*501 u_account_balance/n_608
*502 u_account_balance/n_609
*503 u_account_balance/n_610
*504 u_account_balance/n_612
*505 u_account_balance/n_613
*506 u_account_balance/n_614
*507 u_account_balance/n_615
*508 u_account_balance/n_616
*509 u_account_balance/n_617
*510 u_account_balance/n_618
*511 u_account_balance/n_619
*512 u_account_balance/n_620
*513 u_account_balance/n_621
*514 u_account_balance/n_623
*515 u_account_balance/n_624
*516 u_account_balance/n_626
*517 u_account_balance/n_627
*518 u_account_balance/n_628
*519 u_account_balance/n_629
*520 u_account_balance/n_630
*521 u_account_balance/n_631
*522 u_account_balance/n_632
*523 u_account_balance/n_633
*524 u_account_balance/n_634
*525 u_account_balance/n_635
*526 u_account_balance/n_637
*527 u_account_balance/n_639
*528 u_account_balance/n_640
*529 u_account_balance/n_641
*530 u_account_balance/n_642
*531 u_account_balance/n_643
*532 u_account_balance/n_644
*533 u_account_balance/n_645
*534 u_account_balance/n_646
*535 u_account_balance/n_647
*536 u_account_balance/n_648
*537 u_account_balance/n_649
*538 u_account_balance/n_650
*539 u_account_balance/n_651
*540 u_account_balance/n_652
*541 u_account_balance/n_653
*542 u_account_balance/n_654
*543 u_account_balance/n_655
*544 u_account_balance/n_656
*545 u_account_balance/n_657
*546 u_account_balance/n_658
*547 u_account_balance/n_659
*548 u_account_balance/n_660
*549 u_account_balance/n_661
*550 u_account_balance/n_662
*551 u_account_balance/n_663
*552 u_account_balance/n_664
*553 u_account_balance/n_666
*554 u_account_balance/n_667
*555 u_account_balance/n_668
*556 u_account_balance/n_669
*557 u_account_balance/n_671
*558 u_account_balance/n_672
*559 u_account_balance/n_673
*560 u_account_balance/n_674
*561 u_account_balance/n_675
*562 u_account_balance/n_676
*563 u_account_balance/n_677
*564 u_account_balance/n_678
*565 u_account_balance/n_679
*566 u_account_balance/n_680
*567 u_account_balance/n_681
*568 u_account_balance/n_682
*569 u_account_balance/n_683
*570 u_account_balance/n_684
*571 u_account_balance/n_685
*572 u_account_balance/n_686
*573 u_account_balance/n_687
*574 u_account_balance/n_688
*575 u_account_balance/n_689
*576 u_account_balance/n_690
*577 u_account_balance/n_691
*578 u_account_balance/n_692
*579 u_account_balance/n_693
*580 u_account_balance/n_694
*581 u_account_balance/n_695
*582 u_account_balance/n_696
*583 u_account_balance/n_697
*584 u_account_balance/n_698
*585 u_account_balance/n_699
*586 u_account_balance/n_700
*587 u_account_balance/n_701
*588 u_account_balance/n_702
*589 u_account_balance/n_703
*590 u_account_balance/n_704
*591 u_account_balance/n_705
*592 u_account_balance/n_706
*593 u_account_balance/n_707
*594 u_account_balance/n_708
*595 u_account_balance/n_709
*596 u_account_balance/n_710
*597 u_account_balance/n_711
*598 u_account_balance/n_712
*599 u_account_balance/n_714
*600 u_account_balance/n_715
*601 u_account_balance/n_716
*602 u_account_balance/n_717
*603 u_account_balance/n_718
*604 u_account_balance/n_719
*605 u_account_balance/n_720
*606 u_account_balance/n_721
*607 u_account_balance/n_722
*608 u_account_balance/n_723
*609 u_account_balance/n_724
*610 u_account_balance/n_725
*611 u_account_balance/n_726
*612 u_account_balance/n_727
*613 u_account_balance/n_728
*614 u_account_balance/n_729
*615 u_account_balance/n_730
*616 u_account_balance/n_731
*617 u_account_balance/n_732
*618 u_account_balance/n_733
*619 u_account_balance/n_734
*620 u_account_balance/n_735
*621 u_account_balance/n_736
*622 u_account_balance/n_739
*623 u_account_balance/n_742
*624 u_account_balance/n_743
*625 u_account_balance/n_744
*626 u_account_balance/n_745
*627 u_account_balance/n_746
*628 u_account_balance/n_747
*629 u_account_balance/n_748
*630 u_account_balance/n_749
*631 u_account_balance/n_750
*632 u_account_balance/n_751
*633 u_account_balance/n_752
*634 u_account_balance/n_753
*635 u_account_balance/n_754
*636 u_account_balance/n_755
*637 u_account_balance/n_756
*638 u_account_balance/n_757
*639 u_account_balance/n_758
*640 u_account_balance/n_760
*641 u_account_balance/n_762
*642 u_account_balance/n_763
*643 u_account_balance/n_764
*644 u_account_balance/n_765
*645 u_account_balance/n_766
*646 u_account_balance/n_767
*647 u_account_balance/n_768
*648 u_account_balance/n_769
*649 u_account_balance/n_770
*650 u_account_balance/n_771
*651 u_account_balance/n_773
*652 u_account_balance/n_779
*653 u_account_balance/n_780
*654 u_account_balance/n_781
*655 u_account_balance/n_784
*656 u_account_balance/n_785
*657 u_account_balance/n_786
*658 u_account_balance/n_788
*659 u_account_balance/n_789
*660 u_account_balance/n_790
*661 u_account_balance/n_791
*662 u_account_balance/n_792
*663 u_account_balance/n_793
*664 u_account_balance/n_794
*665 u_account_balance/n_795
*666 u_account_balance/n_796
*667 u_account_balance/n_797
*668 u_account_balance/n_798
*669 u_account_balance/n_799
*670 u_account_balance/n_800
*671 u_account_balance/n_802
*672 u_account_balance/n_803
*673 u_account_balance/n_804
*674 u_account_balance/n_805
*675 u_account_balance/n_806
*676 u_account_balance/n_807
*677 u_account_balance/n_808
*678 u_account_balance/n_809
*679 u_account_balance/n_810
*680 u_account_balance/n_811
*681 u_account_balance/n_812
*682 u_account_balance/n_813
*683 u_account_balance/n_814
*684 u_account_balance/n_815
*685 u_account_balance/n_816
*686 u_account_balance/n_817
*687 u_account_balance/n_818
*688 u_account_balance/n_819
*689 u_account_balance/n_820
*690 u_account_balance/n_821
*691 u_account_balance/n_1938_BAR
*692 u_account_balance/n_1939_BAR
*693 u_account_balance/n_1948_BAR
*694 u_account_balance/n_1949_BAR
*695 u_barrier_ctrl/barrier_position_counter[1]
*696 u_barrier_ctrl/barrier_position_counter[0]
*697 u_barrier_ctrl/n_3
*698 u_barrier_ctrl/n_6
*699 u_barrier_ctrl/n_9
*700 u_barrier_ctrl/n_10
*701 u_barrier_ctrl/n_20
*702 u_barrier_ctrl/n_21
*703 u_barrier_ctrl/n_28
*704 u_barrier_ctrl/n_29
*705 u_barrier_ctrl/n_30
*706 u_barrier_ctrl/n_34
*707 u_barrier_ctrl/n_35
*708 u_barrier_ctrl/n_36
*709 u_barrier_ctrl/n_37
*710 u_barrier_ctrl/n_39
*711 u_barrier_ctrl/n_40
*712 u_barrier_ctrl/n_41
*713 u_barrier_ctrl/n_42
*714 u_barrier_ctrl/n_44
*715 u_barrier_ctrl/n_45
*716 u_barrier_ctrl/n_46
*717 u_vehicle_interface/n_8
*718 u_vehicle_interface/n_10
*719 u_vehicle_interface/n_11
*720 u_vehicle_interface/n_12
*721 u_vehicle_interface/n_13
*722 u_vehicle_interface/n_28
*723 FE_DBTC0_n_68
*724 u_account_balance/balance_db_reg\[0\]\[1\]
*725 u_account_balance/balance_db_reg\[0\]\[2\]
*726 u_account_balance/balance_db_reg\[0\]\[3\]
*727 u_account_balance/balance_db_reg\[0\]\[4\]
*728 u_account_balance/balance_db_reg\[0\]\[5\]
*729 u_account_balance/balance_db_reg\[0\]\[6\]
*730 u_account_balance/balance_db_reg\[0\]\[7\]
*731 u_account_balance/balance_db_reg\[0\]\[8\]
*732 u_account_balance/balance_db_reg\[0\]\[9\]
*733 u_account_balance/balance_db_reg\[0\]\[10\]
*734 u_account_balance/balance_db_reg\[0\]\[11\]
*735 u_account_balance/balance_db_reg\[0\]\[12\]
*736 u_account_balance/balance_db_reg\[0\]\[13\]
*737 u_account_balance/balance_db_reg\[0\]\[14\]
*738 u_account_balance/balance_db_reg\[0\]\[15\]
*739 u_account_balance/balance_db_reg\[4\]\[1\]
*740 u_account_balance/balance_db_reg\[4\]\[2\]
*741 u_account_balance/balance_db_reg\[4\]\[3\]
*742 u_account_balance/balance_db_reg\[4\]\[4\]
*743 u_account_balance/balance_db_reg\[4\]\[5\]
*744 u_account_balance/balance_db_reg\[4\]\[6\]
*745 u_account_balance/balance_db_reg\[4\]\[7\]
*746 u_account_balance/balance_db_reg\[4\]\[8\]
*747 u_account_balance/balance_db_reg\[4\]\[9\]
*748 u_account_balance/balance_db_reg\[4\]\[10\]
*749 u_account_balance/balance_db_reg\[4\]\[11\]
*750 u_account_balance/balance_db_reg\[4\]\[12\]
*751 u_account_balance/balance_db_reg\[4\]\[13\]
*752 u_account_balance/balance_db_reg\[4\]\[14\]
*753 u_account_balance/balance_db_reg\[4\]\[15\]
*754 u_account_balance/balance_db_reg\[5\]\[1\]
*755 u_account_balance/balance_db_reg\[5\]\[2\]
*756 u_account_balance/balance_db_reg\[5\]\[3\]
*757 u_account_balance/balance_db_reg\[5\]\[4\]
*758 u_account_balance/balance_db_reg\[5\]\[5\]
*759 u_account_balance/balance_db_reg\[5\]\[6\]
*760 u_account_balance/balance_db_reg\[5\]\[7\]
*761 u_account_balance/balance_db_reg\[5\]\[8\]
*762 u_account_balance/balance_db_reg\[5\]\[9\]
*763 u_account_balance/balance_db_reg\[5\]\[10\]
*764 u_account_balance/balance_db_reg\[5\]\[11\]
*765 u_account_balance/balance_db_reg\[5\]\[12\]
*766 u_account_balance/balance_db_reg\[5\]\[13\]
*767 u_account_balance/balance_db_reg\[5\]\[14\]
*768 u_account_balance/balance_db_reg\[5\]\[15\]
*769 u_account_balance/balance_db_reg\[6\]\[1\]
*770 u_account_balance/balance_db_reg\[6\]\[2\]
*771 u_account_balance/balance_db_reg\[6\]\[3\]
*772 u_account_balance/balance_db_reg\[6\]\[4\]
*773 u_account_balance/balance_db_reg\[6\]\[5\]
*774 u_account_balance/balance_db_reg\[6\]\[6\]
*775 u_account_balance/balance_db_reg\[6\]\[7\]
*776 u_account_balance/balance_db_reg\[6\]\[8\]
*777 u_account_balance/balance_db_reg\[6\]\[9\]
*778 u_account_balance/balance_db_reg\[6\]\[10\]
*779 u_account_balance/balance_db_reg\[6\]\[11\]
*780 u_account_balance/balance_db_reg\[6\]\[12\]
*781 u_account_balance/balance_db_reg\[6\]\[13\]
*782 u_account_balance/balance_db_reg\[6\]\[14\]
*783 u_account_balance/balance_db_reg\[6\]\[15\]
*784 u_account_balance/balance_db_reg\[7\]\[1\]
*785 u_account_balance/balance_db_reg\[7\]\[2\]
*786 u_account_balance/balance_db_reg\[7\]\[3\]
*787 u_account_balance/balance_db_reg\[7\]\[4\]
*788 u_account_balance/balance_db_reg\[7\]\[5\]
*789 u_account_balance/balance_db_reg\[7\]\[6\]
*790 u_account_balance/balance_db_reg\[7\]\[7\]
*791 u_account_balance/balance_db_reg\[7\]\[8\]
*792 u_account_balance/balance_db_reg\[7\]\[9\]
*793 u_account_balance/balance_db_reg\[7\]\[10\]
*794 u_account_balance/balance_db_reg\[7\]\[11\]
*795 u_account_balance/balance_db_reg\[7\]\[12\]
*796 u_account_balance/balance_db_reg\[7\]\[13\]
*797 u_account_balance/balance_db_reg\[7\]\[14\]
*798 u_account_balance/balance_db_reg\[7\]\[15\]
*799 u_account_balance/balance_db_reg\[8\]\[1\]
*800 u_account_balance/balance_db_reg\[8\]\[2\]
*801 u_account_balance/balance_db_reg\[8\]\[3\]
*802 u_account_balance/balance_db_reg\[8\]\[4\]
*803 u_account_balance/balance_db_reg\[8\]\[5\]
*804 u_account_balance/balance_db_reg\[8\]\[6\]
*805 u_account_balance/balance_db_reg\[8\]\[7\]
*806 u_account_balance/balance_db_reg\[8\]\[8\]
*807 u_account_balance/balance_db_reg\[8\]\[9\]
*808 u_account_balance/balance_db_reg\[8\]\[10\]
*809 u_account_balance/balance_db_reg\[8\]\[11\]
*810 u_account_balance/balance_db_reg\[8\]\[12\]
*811 u_account_balance/balance_db_reg\[8\]\[13\]
*812 u_account_balance/balance_db_reg\[8\]\[14\]
*813 u_account_balance/balance_db_reg\[8\]\[15\]
*814 u_account_balance/balance_db_reg\[9\]\[1\]
*815 u_account_balance/balance_db_reg\[9\]\[2\]
*816 u_account_balance/balance_db_reg\[9\]\[3\]
*817 u_account_balance/balance_db_reg\[9\]\[4\]
*818 u_account_balance/balance_db_reg\[9\]\[5\]
*819 u_account_balance/balance_db_reg\[9\]\[6\]
*820 u_account_balance/balance_db_reg\[9\]\[7\]
*821 u_account_balance/balance_db_reg\[9\]\[8\]
*822 u_account_balance/balance_db_reg\[9\]\[9\]
*823 u_account_balance/balance_db_reg\[9\]\[10\]
*824 u_account_balance/balance_db_reg\[9\]\[11\]
*825 u_account_balance/balance_db_reg\[9\]\[12\]
*826 u_account_balance/balance_db_reg\[9\]\[13\]
*827 u_account_balance/balance_db_reg\[9\]\[14\]
*828 u_account_balance/balance_db_reg\[9\]\[15\]
*829 u_account_balance/balance_db_reg\[10\]\[1\]
*830 u_account_balance/balance_db_reg\[10\]\[2\]
*831 u_account_balance/balance_db_reg\[10\]\[3\]
*832 u_account_balance/balance_db_reg\[10\]\[4\]
*833 u_account_balance/balance_db_reg\[10\]\[5\]
*834 u_account_balance/balance_db_reg\[10\]\[6\]
*835 u_account_balance/balance_db_reg\[10\]\[7\]
*836 u_account_balance/balance_db_reg\[10\]\[8\]
*837 u_account_balance/balance_db_reg\[10\]\[9\]
*838 u_account_balance/balance_db_reg\[10\]\[10\]
*839 u_account_balance/balance_db_reg\[10\]\[11\]
*840 u_account_balance/balance_db_reg\[10\]\[12\]
*841 u_account_balance/balance_db_reg\[10\]\[13\]
*842 u_account_balance/balance_db_reg\[10\]\[14\]
*843 u_account_balance/balance_db_reg\[10\]\[15\]
*844 u_account_balance/balance_db_reg\[11\]\[1\]
*845 u_account_balance/balance_db_reg\[11\]\[2\]
*846 u_account_balance/balance_db_reg\[11\]\[3\]
*847 u_account_balance/balance_db_reg\[11\]\[4\]
*848 u_account_balance/balance_db_reg\[11\]\[5\]
*849 u_account_balance/balance_db_reg\[11\]\[6\]
*850 u_account_balance/balance_db_reg\[11\]\[7\]
*851 u_account_balance/balance_db_reg\[11\]\[8\]
*852 u_account_balance/balance_db_reg\[11\]\[9\]
*853 u_account_balance/balance_db_reg\[11\]\[10\]
*854 u_account_balance/balance_db_reg\[11\]\[11\]
*855 u_account_balance/balance_db_reg\[11\]\[12\]
*856 u_account_balance/balance_db_reg\[11\]\[13\]
*857 u_account_balance/balance_db_reg\[11\]\[14\]
*858 u_account_balance/balance_db_reg\[11\]\[15\]
*859 u_account_balance/balance_db_reg\[12\]\[1\]
*860 u_account_balance/balance_db_reg\[12\]\[2\]
*861 u_account_balance/balance_db_reg\[12\]\[3\]
*862 u_account_balance/balance_db_reg\[12\]\[4\]
*863 u_account_balance/balance_db_reg\[12\]\[5\]
*864 u_account_balance/balance_db_reg\[12\]\[6\]
*865 u_account_balance/balance_db_reg\[12\]\[7\]
*866 u_account_balance/balance_db_reg\[12\]\[8\]
*867 u_account_balance/balance_db_reg\[12\]\[9\]
*868 u_account_balance/balance_db_reg\[12\]\[10\]
*869 u_account_balance/balance_db_reg\[12\]\[11\]
*870 u_account_balance/balance_db_reg\[12\]\[12\]
*871 u_account_balance/balance_db_reg\[12\]\[13\]
*872 u_account_balance/balance_db_reg\[12\]\[14\]
*873 u_account_balance/balance_db_reg\[12\]\[15\]
*874 u_account_balance/balance_db_reg\[13\]\[1\]
*875 u_account_balance/balance_db_reg\[13\]\[2\]
*876 u_account_balance/balance_db_reg\[13\]\[3\]
*877 u_account_balance/balance_db_reg\[13\]\[4\]
*878 u_account_balance/balance_db_reg\[13\]\[5\]
*879 u_account_balance/balance_db_reg\[13\]\[6\]
*880 u_account_balance/balance_db_reg\[13\]\[7\]
*881 u_account_balance/balance_db_reg\[13\]\[8\]
*882 u_account_balance/balance_db_reg\[13\]\[9\]
*883 u_account_balance/balance_db_reg\[13\]\[10\]
*884 u_account_balance/balance_db_reg\[13\]\[11\]
*885 u_account_balance/balance_db_reg\[13\]\[12\]
*886 u_account_balance/balance_db_reg\[13\]\[13\]
*887 u_account_balance/balance_db_reg\[13\]\[14\]
*888 u_account_balance/balance_db_reg\[13\]\[15\]
*889 u_account_balance/balance_db_reg\[14\]\[1\]
*890 u_account_balance/balance_db_reg\[14\]\[2\]
*891 u_account_balance/balance_db_reg\[14\]\[3\]
*892 u_account_balance/balance_db_reg\[14\]\[4\]
*893 u_account_balance/balance_db_reg\[14\]\[5\]
*894 u_account_balance/balance_db_reg\[14\]\[6\]
*895 u_account_balance/balance_db_reg\[14\]\[7\]
*896 u_account_balance/balance_db_reg\[14\]\[8\]
*897 u_account_balance/balance_db_reg\[14\]\[9\]
*898 u_account_balance/balance_db_reg\[14\]\[10\]
*899 u_account_balance/balance_db_reg\[14\]\[11\]
*900 u_account_balance/balance_db_reg\[14\]\[12\]
*901 u_account_balance/balance_db_reg\[14\]\[13\]
*902 u_account_balance/balance_db_reg\[14\]\[14\]
*903 u_account_balance/balance_db_reg\[14\]\[15\]
*904 u_account_balance/balance_db_reg\[15\]\[1\]
*905 u_account_balance/balance_db_reg\[15\]\[2\]
*906 u_account_balance/balance_db_reg\[15\]\[3\]
*907 u_account_balance/balance_db_reg\[15\]\[4\]
*908 u_account_balance/balance_db_reg\[15\]\[5\]
*909 u_account_balance/balance_db_reg\[15\]\[6\]
*910 u_account_balance/balance_db_reg\[15\]\[7\]
*911 u_account_balance/balance_db_reg\[15\]\[8\]
*912 u_account_balance/balance_db_reg\[15\]\[9\]
*913 u_account_balance/balance_db_reg\[15\]\[10\]
*914 u_account_balance/balance_db_reg\[15\]\[11\]
*915 u_account_balance/balance_db_reg\[15\]\[12\]
*916 u_account_balance/balance_db_reg\[15\]\[13\]
*917 u_account_balance/balance_db_reg\[15\]\[14\]
*918 u_account_balance/balance_db_reg\[15\]\[15\]
*919 u_account_balance/g3408
*920 u_account_balance/g3406
*921 u_account_balance/g3407
*922 u_account_balance/g3403
*923 u_account_balance/g3409
*924 u_account_balance/g3405
*925 u_account_balance/charge_done_reg
*926 u_account_balance/g13137
*927 u_account_balance/g13138
*928 u_account_balance/g13139
*929 u_account_balance/g13140
*930 u_account_balance/g13141
*931 u_account_balance/g13142
*932 u_account_balance/g13143
*933 u_account_balance/g13144
*934 u_account_balance/g13145
*935 u_account_balance/g13146
*936 u_account_balance/g13147
*937 u_account_balance/g13148
*938 u_account_balance/g13149
*939 u_account_balance/g13150
*940 u_account_balance/g13152
*941 u_account_balance/g13153
*942 u_account_balance/g13154
*943 u_account_balance/g13155
*944 u_account_balance/g13156
*945 u_account_balance/g13157
*946 u_account_balance/g13158
*947 u_account_balance/g13159
*948 u_account_balance/g13160
*949 u_account_balance/g13161
*950 u_account_balance/g13162
*951 u_account_balance/g13163
*952 u_account_balance/g13164
*953 u_account_balance/g13165
*954 u_account_balance/g13167
*955 u_account_balance/g13168
*956 u_account_balance/g13170
*957 u_account_balance/g13172
*958 u_account_balance/g13173
*959 u_account_balance/g13174
*960 u_account_balance/g13175
*961 u_account_balance/g13176
*962 u_account_balance/g13177
*963 u_account_balance/g13178
*964 u_account_balance/g13179
*965 u_account_balance/g13180
*966 u_account_balance/g13184
*967 u_account_balance/g13187
*968 u_account_balance/g13188
*969 u_account_balance/g13192
*970 u_account_balance/g13193
*971 u_account_balance/g13194
*972 u_account_balance/g13195
*973 u_account_balance/g13196
*974 u_account_balance/g13197
*975 u_account_balance/g13198
*976 u_account_balance/g13199
*977 u_account_balance/g13200
*978 u_account_balance/g13201
*979 u_account_balance/g13202
*980 u_account_balance/g13203
*981 u_account_balance/g13204
*982 u_account_balance/g13205
*983 u_account_balance/g13206
*984 u_account_balance/g13207
*985 u_account_balance/g13209
*986 u_account_balance/g13210
*987 u_account_balance/g13211
*988 u_account_balance/g13212
*989 u_account_balance/g13213
*990 u_account_balance/g13214
*991 u_account_balance/g13215
*992 u_account_balance/g13216
*993 u_account_balance/g13218
*994 u_account_balance/g13219
*995 u_account_balance/g13220
*996 u_account_balance/g13221
*997 u_account_balance/g13222
*998 u_account_balance/g13223
*999 u_account_balance/g13224
*1000 u_account_balance/g13225
*1001 u_account_balance/g13226
*1002 u_account_balance/g13227
*1003 u_account_balance/g13228
*1004 u_account_balance/g13229
*1005 u_account_balance/g13230
*1006 u_account_balance/g13231
*1007 u_account_balance/g13232
*1008 u_account_balance/g13233
*1009 u_account_balance/g13234
*1010 u_account_balance/g13235
*1011 u_account_balance/g13236
*1012 u_account_balance/g13237
*1013 u_account_balance/g13238
*1014 u_account_balance/g13239
*1015 u_account_balance/g13240
*1016 u_account_balance/g13241
*1017 u_account_balance/g13242
*1018 u_account_balance/g13243
*1019 u_account_balance/g13244
*1020 u_account_balance/g13245
*1021 u_account_balance/g13246
*1022 u_account_balance/g13247
*1023 u_account_balance/g13248
*1024 u_account_balance/g13249
*1025 u_account_balance/g13250
*1026 u_account_balance/g13251
*1027 u_account_balance/g13252
*1028 u_account_balance/g13253
*1029 u_account_balance/g13254
*1030 u_account_balance/g13255
*1031 u_account_balance/g13256
*1032 u_account_balance/g13257
*1033 u_account_balance/g13258
*1034 u_account_balance/g13259
*1035 u_account_balance/g13260
*1036 u_account_balance/g13261
*1037 u_account_balance/g13262
*1038 u_account_balance/g13264
*1039 u_account_balance/g13265
*1040 u_account_balance/g13266
*1041 u_account_balance/g13267
*1042 u_account_balance/g13269
*1043 u_account_balance/g13270
*1044 u_account_balance/g13271
*1045 u_account_balance/g13272
*1046 u_account_balance/g13273
*1047 u_account_balance/g13274
*1048 u_account_balance/g13275
*1049 u_account_balance/g13276
*1050 u_account_balance/g13277
*1051 u_account_balance/g13278
*1052 u_account_balance/g13279
*1053 u_account_balance/g13280
*1054 u_account_balance/g13281
*1055 u_account_balance/g13282
*1056 u_account_balance/g13283
*1057 u_account_balance/g13284
*1058 u_account_balance/g13285
*1059 u_account_balance/g13286
*1060 u_account_balance/g13287
*1061 u_account_balance/g13288
*1062 u_account_balance/g13289
*1063 u_account_balance/g13290
*1064 u_account_balance/g13291
*1065 u_account_balance/g13292
*1066 u_account_balance/g13293
*1067 u_account_balance/g13294
*1068 u_account_balance/g13296
*1069 u_account_balance/g13298
*1070 u_account_balance/g13299
*1071 u_account_balance/g13300
*1072 u_account_balance/g13301
*1073 u_account_balance/g13302
*1074 u_account_balance/g13303
*1075 u_account_balance/g13304
*1076 u_account_balance/g13305
*1077 u_account_balance/g13306
*1078 u_account_balance/g13307
*1079 u_account_balance/g13309
*1080 u_account_balance/g13310
*1081 u_account_balance/g13312
*1082 u_account_balance/g13313
*1083 u_account_balance/g13314
*1084 u_account_balance/g13315
*1085 u_account_balance/g13316
*1086 u_account_balance/g13317
*1087 u_account_balance/g13318
*1088 u_account_balance/g13319
*1089 u_account_balance/g13320
*1090 u_account_balance/g13321
*1091 u_account_balance/g13323
*1092 u_account_balance/g13324
*1093 u_account_balance/g13325
*1094 u_account_balance/g13326
*1095 u_account_balance/g13327
*1096 u_account_balance/g13328
*1097 u_account_balance/g13329
*1098 u_account_balance/g13330
*1099 u_account_balance/g13331
*1100 u_account_balance/g13332
*1101 u_account_balance/g13333
*1102 u_account_balance/g13334
*1103 u_account_balance/g13335
*1104 u_account_balance/g13336
*1105 u_account_balance/g13337
*1106 u_account_balance/g13339
*1107 u_account_balance/g13340
*1108 u_account_balance/g13341
*1109 u_account_balance/g13342
*1110 u_account_balance/g13343
*1111 u_account_balance/g13344
*1112 u_account_balance/g13345
*1113 u_account_balance/g13346
*1114 u_account_balance/g13347
*1115 u_account_balance/g13348
*1116 u_account_balance/g13349
*1117 u_account_balance/g13350
*1118 u_account_balance/g13351
*1119 u_account_balance/g13352
*1120 u_account_balance/g13353
*1121 u_account_balance/g13354
*1122 u_account_balance/g13355
*1123 u_account_balance/g13357
*1124 u_account_balance/g13358
*1125 u_account_balance/g13359
*1126 u_account_balance/g13361
*1127 u_account_balance/g13363
*1128 u_account_balance/g13365
*1129 u_account_balance/g13366
*1130 u_account_balance/g13367
*1131 u_account_balance/g13368
*1132 u_account_balance/g13369
*1133 u_account_balance/g13371
*1134 u_account_balance/g13372
*1135 u_account_balance/g13373
*1136 u_account_balance/g13375
*1137 u_account_balance/g13376
*1138 u_account_balance/g13377
*1139 u_account_balance/g13378
*1140 u_account_balance/g13379
*1141 u_account_balance/g13380
*1142 u_account_balance/g13381
*1143 u_account_balance/g13382
*1144 u_account_balance/g13383
*1145 u_account_balance/g13384
*1146 u_account_balance/g13385
*1147 u_account_balance/g13386
*1148 u_account_balance/g13387
*1149 u_account_balance/g13388
*1150 u_account_balance/g13389
*1151 u_account_balance/g13390
*1152 u_account_balance/g13391
*1153 u_account_balance/g13392
*1154 u_account_balance/g13394
*1155 u_account_balance/g13395
*1156 u_account_balance/g13396
*1157 u_account_balance/g13397
*1158 u_account_balance/g13398
*1159 u_account_balance/g13399
*1160 u_account_balance/g13401
*1161 u_account_balance/g13402
*1162 u_account_balance/g13403
*1163 u_account_balance/g13404
*1164 u_account_balance/g13405
*1165 u_account_balance/g13406
*1166 u_account_balance/g13407
*1167 u_account_balance/g13408
*1168 u_account_balance/g13409
*1169 u_account_balance/g13410
*1170 u_account_balance/g13411
*1171 u_account_balance/g13412
*1172 u_account_balance/g13413
*1173 u_account_balance/g13414
*1174 u_account_balance/g13415
*1175 u_account_balance/g13416
*1176 u_account_balance/g13418
*1177 u_account_balance/g13419
*1178 u_account_balance/g13420
*1179 u_account_balance/g13421
*1180 u_account_balance/g13422
*1181 u_account_balance/g13424
*1182 u_account_balance/g13426
*1183 u_account_balance/g13427
*1184 u_account_balance/g13428
*1185 u_account_balance/g13429
*1186 u_account_balance/g13430
*1187 u_account_balance/g13431
*1188 u_account_balance/g13432
*1189 u_account_balance/g13434
*1190 u_account_balance/g13435
*1191 u_account_balance/g13437
*1192 u_account_balance/g13438
*1193 u_account_balance/g13442
*1194 u_account_balance/g13443
*1195 u_account_balance/g13444
*1196 u_account_balance/g13445
*1197 u_account_balance/g13446
*1198 u_account_balance/g13447
*1199 u_account_balance/g13449
*1200 u_account_balance/g13450
*1201 u_account_balance/g13451
*1202 u_account_balance/g13452
*1203 u_account_balance/g13453
*1204 u_account_balance/g13454
*1205 u_account_balance/g13455
*1206 u_account_balance/g13456
*1207 u_account_balance/g13457
*1208 u_account_balance/g13458
*1209 u_account_balance/g13459
*1210 u_account_balance/g13460
*1211 u_account_balance/g13461
*1212 u_account_balance/g13462
*1213 u_account_balance/g13463
*1214 u_account_balance/g13464
*1215 u_account_balance/g13465
*1216 u_account_balance/g2
*1217 u_account_balance/g13468
*1218 u_account_balance/g13469
*1219 u_account_balance/balance_db_reg\[1\]\[1\]
*1220 u_account_balance/balance_db_reg\[1\]\[2\]
*1221 u_account_balance/balance_db_reg\[1\]\[3\]
*1222 u_account_balance/balance_db_reg\[1\]\[4\]
*1223 u_account_balance/balance_db_reg\[1\]\[5\]
*1224 u_account_balance/balance_db_reg\[1\]\[6\]
*1225 u_account_balance/balance_db_reg\[1\]\[7\]
*1226 u_account_balance/balance_db_reg\[1\]\[8\]
*1227 u_account_balance/balance_db_reg\[1\]\[9\]
*1228 u_account_balance/balance_db_reg\[1\]\[10\]
*1229 u_account_balance/balance_db_reg\[1\]\[11\]
*1230 u_account_balance/balance_db_reg\[1\]\[12\]
*1231 u_account_balance/balance_db_reg\[1\]\[13\]
*1232 u_account_balance/balance_db_reg\[1\]\[14\]
*1233 u_account_balance/balance_db_reg\[2\]\[1\]
*1234 u_account_balance/balance_db_reg\[2\]\[2\]
*1235 u_account_balance/balance_db_reg\[2\]\[3\]
*1236 u_account_balance/balance_db_reg\[2\]\[4\]
*1237 u_account_balance/balance_db_reg\[2\]\[5\]
*1238 u_account_balance/balance_db_reg\[2\]\[6\]
*1239 u_account_balance/balance_db_reg\[2\]\[7\]
*1240 u_account_balance/balance_db_reg\[2\]\[8\]
*1241 u_account_balance/balance_db_reg\[2\]\[9\]
*1242 u_account_balance/balance_db_reg\[2\]\[10\]
*1243 u_account_balance/balance_db_reg\[2\]\[11\]
*1244 u_account_balance/balance_db_reg\[2\]\[12\]
*1245 u_account_balance/balance_db_reg\[2\]\[13\]
*1246 u_account_balance/balance_db_reg\[2\]\[14\]
*1247 u_account_balance/balance_db_reg\[3\]\[1\]
*1248 u_account_balance/balance_db_reg\[3\]\[2\]
*1249 u_account_balance/balance_db_reg\[3\]\[3\]
*1250 u_account_balance/balance_db_reg\[3\]\[4\]
*1251 u_account_balance/balance_db_reg\[3\]\[5\]
*1252 u_account_balance/balance_db_reg\[3\]\[6\]
*1253 u_account_balance/balance_db_reg\[3\]\[7\]
*1254 u_account_balance/balance_db_reg\[3\]\[8\]
*1255 u_account_balance/balance_db_reg\[3\]\[9\]
*1256 u_account_balance/balance_db_reg\[3\]\[10\]
*1257 u_account_balance/balance_db_reg\[3\]\[11\]
*1258 u_account_balance/balance_db_reg\[3\]\[12\]
*1259 u_account_balance/balance_db_reg\[3\]\[13\]
*1260 u_account_balance/balance_db_reg\[3\]\[14\]
*1261 u_account_balance/g4280
*1262 u_account_balance/g4282
*1263 u_account_balance/g4283
*1264 u_account_balance/g4284
*1265 u_account_balance/g4286
*1266 u_account_balance/g4287
*1267 u_account_balance/g4288
*1268 u_account_balance/g4289
*1269 u_account_balance/g4290
*1270 u_account_balance/g4291
*1271 u_account_balance/g4292
*1272 u_account_balance/g4293
*1273 u_account_balance/g4294
*1274 u_account_balance/g4295
*1275 u_account_balance/g4296
*1276 u_account_balance/g4297
*1277 u_account_balance/g4298
*1278 u_account_balance/g4299
*1279 u_account_balance/g4301
*1280 u_account_balance/g4302
*1281 u_account_balance/g4303
*1282 u_account_balance/g4304
*1283 u_account_balance/g4305
*1284 u_account_balance/g4306
*1285 u_account_balance/g4307
*1286 u_account_balance/g4308
*1287 u_account_balance/g4309
*1288 u_account_balance/g4310
*1289 u_account_balance/g4311
*1290 u_account_balance/g4312
*1291 u_account_balance/g4313
*1292 u_account_balance/g4314
*1293 u_account_balance/g4315
*1294 u_account_balance/g4316
*1295 u_account_balance/g4317
*1296 u_account_balance/g4318
*1297 u_account_balance/g4319
*1298 u_account_balance/g4320
*1299 u_account_balance/g4321
*1300 u_account_balance/g4322
*1301 u_account_balance/g4323
*1302 u_account_balance/g4324
*1303 u_account_balance/g4325
*1304 u_account_balance/g4326
*1305 u_account_balance/g4327
*1306 u_account_balance/g4328
*1307 u_account_balance/g4329
*1308 u_account_balance/g4330
*1309 u_account_balance/g4331
*1310 u_account_balance/g4332
*1311 u_account_balance/g4333
*1312 u_account_balance/g4334
*1313 u_account_balance/g4335
*1314 u_account_balance/g4336
*1315 u_account_balance/g4337
*1316 u_account_balance/g4338
*1317 u_account_balance/g4341
*1318 u_account_balance/g4343
*1319 u_account_balance/g4344
*1320 u_account_balance/g4345
*1321 u_account_balance/g4346
*1322 u_account_balance/g4347
*1323 u_account_balance/g4349
*1324 u_account_balance/g4350
*1325 u_account_balance/g4351
*1326 u_account_balance/g4352
*1327 u_account_balance/g4353
*1328 u_account_balance/g4355
*1329 u_account_balance/g4356
*1330 u_account_balance/g4357
*1331 u_account_balance/g4358
*1332 u_account_balance/g4359
*1333 u_account_balance/g4360
*1334 u_account_balance/g4361
*1335 u_account_balance/g4362
*1336 u_account_balance/g4363
*1337 u_account_balance/g4365
*1338 u_account_balance/g4366
*1339 u_account_balance/g13470
*1340 u_account_balance/g3
*1341 u_account_balance/g13471
*1342 u_account_balance/g13472
*1343 u_account_balance/g13473
*1344 u_account_balance/g13474
*1345 u_account_balance/g13475
*1346 u_account_balance/g13476
*1347 u_account_balance/g13477
*1348 u_account_balance/g13478
*1349 u_account_balance/g13479
*1350 u_account_balance/g13480
*1351 u_account_balance/g13481
*1352 u_account_balance/g13482
*1353 u_account_balance/g13483
*1354 u_account_balance/g13484
*1355 u_account_balance/g13485
*1356 u_account_balance/g13486
*1357 u_barrier_ctrl/g152
*1358 u_barrier_ctrl/barrier_close_cmd_reg
*1359 u_barrier_ctrl/barrier_open_cmd_reg
*1360 u_barrier_ctrl/g214
*1361 u_barrier_ctrl/g215
*1362 u_barrier_ctrl/g216
*1363 u_barrier_ctrl/g217
*1364 u_barrier_ctrl/g218
*1365 u_barrier_ctrl/g219
*1366 u_barrier_ctrl/g220
*1367 u_barrier_ctrl/barrier_position_counter_reg\[2\]
*1368 u_barrier_ctrl/barrier_position_counter_reg\[0\]
*1369 u_barrier_ctrl/g324
*1370 u_barrier_ctrl/barrier_position_counter_reg\[1\]
*1371 u_barrier_ctrl/g326
*1372 u_barrier_ctrl/g327
*1373 u_barrier_ctrl/g328
*1374 u_barrier_ctrl/g329
*1375 u_barrier_ctrl/g330
*1376 u_barrier_ctrl/g331
*1377 u_barrier_ctrl/g332
*1378 u_barrier_ctrl/g333
*1379 u_barrier_ctrl/g334
*1380 u_barrier_ctrl/g335
*1381 u_barrier_ctrl/g336
*1382 u_barrier_ctrl/g337
*1383 u_vehicle_interface/id_valid_reg
*1384 u_vehicle_interface/id_to_check_reg\[0\]
*1385 u_vehicle_interface/id_to_check_reg\[1\]
*1386 u_vehicle_interface/id_to_check_reg\[2\]
*1387 u_vehicle_interface/id_to_check_reg\[3\]
*1388 u_vehicle_interface/g196
*1389 u_vehicle_interface/g197
*1390 u_vehicle_interface/g198
*1391 u_vehicle_interface/g199
*1392 u_vehicle_interface/g201
*1393 u_vehicle_interface/g202
*1394 g221
*1395 g224
*1396 g348
*1397 g349
*1398 g350
*1399 g351
*1400 g352
*1401 g353
*1402 g354
*1403 g355
*1404 g356
*1405 g357
*1406 g358
*1407 g359
*1408 g360
*1409 g361
*1410 g363
*1411 g364
*1412 state_reg\[0\]
*1413 state_reg\[2\]
*1414 state_reg\[1\]
*1415 g413
*1416 g414
*1417 g415
*1418 g416
*1419 g417
*1420 g418
*1421 g419
*1422 g420
*1423 g421
*1424 g422
*1425 g423
*1426 g424
*1427 g425
*1428 g426
*1429 g427
*1430 g428
*1431 g429
*1432 g430


*PORTS

*3 I *C 0 0
*4 I *C 26.215 0
*5 I *C 0 0
*6 I *C 0 25.635
*10 I *C 0 128.18
*11 I *C 0 102.545
*12 I *C 0 76.91
*13 I *C 0 51.27
*14 O *C 104.865 0
*15 O *C 131.08 0
*18 O *C 78.65 0
*19 O *C 52.43 0
*20 O *C 131.08 109.865
*21 O *C 131.08 91.555
*22 O *C 131.08 54.935
*23 O *C 131.08 36.62
*24 O *C 131.08 18.31
*25 O *C 131.08 0
*7 I *C 0 0
*8 I *C 0 0
*16 O *C 0 0
*9 I *C 0 0
*17 O *C 0 0


*D_NET *1 0.00526717

*CONN
*I *1383:SI I *C 28.565 23.635 *L 0.00172 *D SDFFQX1
*I *1175:A1 I *C 27.985 43.935 *L 0.00171 *D AOI22XL
*I *1340:B I *C 27.7 34.415 *L 0.00164 *D MXI2XL
*I *1248:Q O *C 16.675 33.495 *L 0 *D SDFFQX1

*CAP
1 *1:1 0.00086492
2 *1:2 0.00086492
3 *1:3 5.04313e-05
4 *1:4 7.56469e-05
5 *1:5 0.000827454
6 *1:6 0.00082577
7 *1:7 0.000827454
8 *1:8 4.32316e-06
9 *1:9 0.000800555
10 *1:11 4.75548e-06
11 *1:12 6.02566e-05
12 *1:13 4.32316e-07
13 *1:14 6.02566e-05

*RES
1 *1:14 *1248:Q 1.4
2 *1:13 *1340:B 1.4
3 *1:12 *1:14 0.37285
4 *1:11 *1:13 0.00214291
5 *1:9 *1:12 1.4
6 *1:8 *1:11 0.0214291
7 *1:7 *1175:A1 1.4
8 *1:6 *1:9 4.72276
9 *1:6 *1:8 1.4
10 *1:5 *1:7 4.10152
11 *1:4 *1:6 0.124283
12 *1:4 *1:5 1.4
13 *1:3 *1:4 0.248566
14 *1:2 *1:3 1.4
15 *1:1 *1:2 4.59863
16 *1383:SI *1:1 1.4
*END

*D_NET *2 0.0115712

*CONN
*I *1215:A I *C 55.535 73.515 *L 0.00273 *D INVX1
*I *1292:A1 I *C 51.765 73.515 *L 0.00168 *D AO22XL
*I *1413:SI I *C 50.605 13.195 *L 0.00172 *D SDFFQX1
*I *1253:Q O *C 47.705 70.035 *L 0 *D SDFFQX1

*CAP
1 *2:1 4.82399e-05
2 *2:2 4.82399e-05
3 *2:3 0.00033845
4 *2:4 0.000362788
5 *2:5 5.13279e-05
6 *2:6 2.43381e-05
7 *2:7 5.13279e-05
8 *2:8 0.000205311
9 *2:10 0.000205311
10 *2:11 7.30143e-05
11 *2:12 7.30143e-05
12 *2:13 0.000179648
13 *2:14 0.00477588
14 *2:15 0.000243381
15 *2:16 0.00459623
16 *2:17 0.000243381
17 *2:19 2.56639e-05
18 *2:20 2.56639e-05

*RES
1 *2:20 *1253:Q 1.4
2 *2:19 *2:20 0.124283
3 *2:17 *2:19 1.4
4 *2:16 *1413:SI 1.4
5 *2:15 *2:17 1.24283
6 *2:14 *2:16 24.2357
7 *2:14 *2:15 1.4
8 *2:13 *2:14 0.869979
9 *2:12 *2:13 1.4
10 *2:11 *2:12 0.372848
11 *2:10 *2:11 1.4
12 *2:8 *2:10 0.994261
13 *2:7 *1292:A1 1.4
14 *2:6 *2:8 1.4
15 *2:5 *2:7 0.248565
16 *2:4 *2:6 0.124283
17 *2:4 *2:5 1.4
18 *2:3 *2:4 1.61568
19 *2:2 *2:3 1.4
20 *2:1 *2:2 0.248567
21 *1215:A *2:1 1.4
*END

*D_NET *3 0.24468

*CONN
*I *887:CK I *C 99.325 46.835 *L 0.00175 *D SDFFQXL
*I *767:CK I *C 94.975 50.025 *L 0.00173 *D SDFFQX1
*I *1232:CK I *C 94.685 52.055 *L 0.00173 *D SDFFQX1
*I *917:CK I *C 93.525 57.275 *L 0.00175 *D SDFFQXL
*I *916:CK I *C 93.235 55.245 *L 0.00175 *D SDFFQXL
*I *902:CK I *C 92.945 50.025 *L 0.00175 *D SDFFQXL
*I *1242:CK I *C 97.005 60.465 *L 0.00173 *D SDFFQX1
*I *1231:CK I *C 98.165 57.275 *L 0.00173 *D SDFFQX1
*I *1260:CK I *C 106.865 57.275 *L 0.00173 *D SDFFQX1
*I *1228:CK I *C 99.325 62.495 *L 0.00173 *D SDFFQX1
*I *1259:CK I *C 110.925 55.245 *L 0.00173 *D SDFFQX1
*I *1246:CK I *C 119.335 55.245 *L 0.00173 *D SDFFQX1
*I *856:CK I *C 112.085 50.025 *L 0.00175 *D SDFFQXL
*I *886:CK I *C 103.675 50.025 *L 0.00175 *D SDFFQXL
*I *766:CK I *C 119.335 52.055 *L 0.00173 *D SDFFQX1
*I *751:CK I *C 105.125 41.615 *L 0.00173 *D SDFFQX1
*I *752:CK I *C 103.385 52.055 *L 0.00173 *D SDFFQX1
*I *857:CK I *C 111.215 39.585 *L 0.00175 *D SDFFQXL
*I *811:CK I *C 117.015 34.365 *L 0.00173 *D SDFFQX1
*I *842:CK I *C 110.925 36.395 *L 0.00175 *D SDFFQXL
*I *827:CK I *C 109.475 31.175 *L 0.00175 *D SDFFQXL
*I *871:CK I *C 119.335 39.585 *L 0.00175 *D SDFFQXL
*I *872:CK I *C 125.715 41.615 *L 0.00175 *D SDFFQXL
*I *841:CK I *C 125.425 34.365 *L 0.00175 *D SDFFQXL
*I *812:CK I *C 103.385 29.145 *L 0.00173 *D SDFFQX1
*I *782:CK I *C 94.105 29.145 *L 0.00173 *D SDFFQX1
*I *781:CK I *C 94.105 31.175 *L 0.00173 *D SDFFQX1
*I *797:CK I *C 92.075 29.145 *L 0.00173 *D SDFFQX1
*I *826:CK I *C 97.585 34.365 *L 0.00175 *D SDFFQXL
*I *796:CK I *C 85.695 31.175 *L 0.00173 *D SDFFQX1
*I *825:CK I *C 77.575 31.175 *L 0.00175 *D SDFFQXL
*I *736:CK I *C 97.005 39.585 *L 0.00173 *D SDFFQX1
*I *737:CK I *C 93.525 36.395 *L 0.00173 *D SDFFQX1
*I *810:CK I *C 77.285 25.955 *L 0.00175 *D SDFFQXL
*I *750:CK I *C 71.195 39.585 *L 0.00173 *D SDFFQX1
*I *780:CK I *C 69.165 31.175 *L 0.00173 *D SDFFQX1
*I *1370:CK I *C 82.215 18.705 *L 0.00173 *D SDFFQX1
*I *840:CK I *C 71.485 36.395 *L 0.00175 *D SDFFQXL
*I *795:CK I *C 68.875 29.145 *L 0.00173 *D SDFFQX1
*I *828:CK I *C 67.135 31.175 *L 0.00173 *D SDFFQX1
*I *870:CK I *C 62.785 39.585 *L 0.00175 *D SDFFQXL
*I *1359:CK I *C 88.595 8.265 *L 0.00173 *D SDFFQX1
*I *1367:CK I *C 79.895 5.075 *L 0.00173 *D SDFFQX1
*I *1358:CK I *C 97.005 5.075 *L 0.00173 *D SDFFQX1
*I *855:CK I *C 63.365 41.615 *L 0.00175 *D SDFFQXL
*I *873:CK I *C 61.335 39.585 *L 0.00173 *D SDFFQX1
*I *1368:CK I *C 64.525 15.515 *L 0.00173 *D SDFFQX1
*I *885:CK I *C 64.815 46.835 *L 0.00175 *D SDFFQXL
*I *738:CK I *C 54.375 36.395 *L 0.00173 *D SDFFQX1
*I *768:CK I *C 57.275 50.025 *L 0.00173 *D SDFFQX1
*I *753:CK I *C 56.695 46.835 *L 0.00173 *D SDFFQX1
*I *843:CK I *C 47.125 39.585 *L 0.00173 *D SDFFQX1
*I *813:CK I *C 60.465 29.145 *L 0.00173 *D SDFFQX1
*I *1413:CK I *C 56.695 13.485 *L 0.00173 *D SDFFQX1
*I *765:CK I *C 70.615 50.025 *L 0.00173 *D SDFFQX1
*I *888:CK I *C 53.795 55.245 *L 0.00175 *D SDFFQXL
*I *1230:CK I *C 70.615 52.055 *L 0.00173 *D SDFFQX1
*I *798:CK I *C 52.055 29.145 *L 0.00173 *D SDFFQX1
*I *783:CK I *C 52.345 31.175 *L 0.00173 *D SDFFQX1
*I *865:CK I *C 60.465 62.495 *L 0.00173 *D SDFFQX1
*I *900:CK I *C 59.885 57.275 *L 0.00175 *D SDFFQXL
*I *915:CK I *C 62.495 55.245 *L 0.00175 *D SDFFQXL
*I *918:CK I *C 50.605 57.275 *L 0.00175 *D SDFFQXL
*I *903:CK I *C 49.155 50.025 *L 0.00173 *D SDFFQX1
*I *1225:CK I *C 62.205 62.495 *L 0.00173 *D SDFFQX1
*I *858:CK I *C 48.575 46.835 *L 0.00175 *D SDFFQXL
*I *760:CK I *C 59.305 67.715 *L 0.00173 *D SDFFQX1
*I *745:CK I *C 57.565 67.715 *L 0.00173 *D SDFFQX1
*I *850:CK I *C 62.785 76.125 *L 0.00175 *D SDFFQXL
*I *835:CK I *C 64.815 70.905 *L 0.00173 *D SDFFQX1
*I *730:CK I *C 71.195 76.125 *L 0.00173 *D SDFFQX1
*I *880:CK I *C 63.075 78.155 *L 0.00175 *D SDFFQXL
*I *838:CK I *C 78.735 81.345 *L 0.00173 *D SDFFQX1
*I *898:CK I *C 79.605 76.125 *L 0.00175 *D SDFFQXL
*I *910:CK I *C 60.175 83.375 *L 0.00175 *D SDFFQXL
*I *1239:CK I *C 79.025 70.905 *L 0.00173 *D SDFFQX1
*I *913:CK I *C 80.475 70.905 *L 0.00175 *D SDFFQXL
*I *914:CK I *C 77.285 83.375 *L 0.00175 *D SDFFQXL
*I *895:CK I *C 60.755 88.595 *L 0.00173 *D SDFFQX1
*I *893:CK I *C 52.345 88.595 *L 0.00175 *D SDFFQXL
*I *805:CK I *C 69.455 83.375 *L 0.00173 *D SDFFQX1
*I *823:CK I *C 85.985 72.935 *L 0.00175 *D SDFFQXL
*I *775:CK I *C 77.865 65.685 *L 0.00173 *D SDFFQX1
*I *1251:CK I *C 52.055 91.785 *L 0.00173 *D SDFFQX1
*I *820:CK I *C 71.775 88.595 *L 0.00175 *D SDFFQXL
*I *778:CK I *C 88.015 76.125 *L 0.00173 *D SDFFQX1
*I *908:CK I *C 50.895 88.595 *L 0.00175 *D SDFFQXL
*I *1224:CK I *C 50.025 93.815 *L 0.00173 *D SDFFQX1
*I *853:CK I *C 96.715 76.125 *L 0.00175 *D SDFFQXL
*I *1256:CK I *C 82.795 65.685 *L 0.00173 *D SDFFQX1
*I *883:CK I *C 91.495 65.685 *L 0.00175 *D SDFFQXL
*I *899:CK I *C 76.415 91.785 *L 0.00175 *D SDFFQXL
*I *1237:CK I *C 47.995 104.255 *L 0.00173 *D SDFFQX1
*I *897:CK I *C 81.635 93.815 *L 0.00175 *D SDFFQXL
*I *790:CK I *C 76.415 62.495 *L 0.00173 *D SDFFQX1
*I *794:CK I *C 84.535 91.785 *L 0.00173 *D SDFFQX1
*I *733:CK I *C 100.485 72.935 *L 0.00173 *D SDFFQX1
*I *1258:CK I *C 80.185 60.465 *L 0.00173 *D SDFFQX1
*I *868:CK I *C 100.195 78.155 *L 0.00175 *D SDFFQXL
*I *1229:CK I *C 108.025 81.345 *L 0.00173 *D SDFFQX1
*I *912:CK I *C 82.795 97.005 *L 0.00175 *D SDFFQXL
*I *793:CK I *C 93.235 81.345 *L 0.00173 *D SDFFQX1
*I *809:CK I *C 110.055 83.375 *L 0.00175 *D SDFFQXL
*I *1244:CK I *C 78.445 55.245 *L 0.00173 *D SDFFQX1
*I *1257:CK I *C 110.925 76.125 *L 0.00173 *D SDFFQX1
*I *878:CK I *C 43.935 107.445 *L 0.00175 *D SDFFQXL
*I *1223:CK I *C 44.515 102.225 *L 0.00173 *D SDFFQX1
*I *792:CK I *C 80.765 99.035 *L 0.00173 *D SDFFQX1
*I *808:CK I *C 90.335 83.375 *L 0.00175 *D SDFFQXL
*I *1243:CK I *C 115.565 86.565 *L 0.00173 *D SDFFQX1
*I *896:CK I *C 82.215 102.225 *L 0.00173 *D SDFFQX1
*I *894:CK I *C 74.095 102.225 *L 0.00173 *D SDFFQX1
*I *884:CK I *C 111.795 70.905 *L 0.00175 *D SDFFQXL
*I *735:CK I *C 84.825 50.025 *L 0.00173 *D SDFFQX1
*I *824:CK I *C 96.135 86.565 *L 0.00175 *D SDFFQXL
*I *779:CK I *C 90.335 93.815 *L 0.00173 *D SDFFQX1
*I *734:CK I *C 106.865 86.565 *L 0.00173 *D SDFFQX1
*I *1227:CK I *C 117.595 88.595 *L 0.00173 *D SDFFQX1
*I *901:CK I *C 85.405 44.805 *L 0.00175 *D SDFFQXL
*I *852:CK I *C 117.595 91.785 *L 0.00175 *D SDFFQXL
*I *911:CK I *C 82.795 104.255 *L 0.00175 *D SDFFQXL
*I *791:CK I *C 83.375 112.665 *L 0.00173 *D SDFFQX1
*I *1238:CK I *C 72.065 102.225 *L 0.00173 *D SDFFQX1
*I *789:CK I *C 72.065 99.035 *L 0.00173 *D SDFFQX1
*I *749:CK I *C 117.885 67.715 *L 0.00173 *D SDFFQX1
*I *839:CK I *C 125.135 83.375 *L 0.00175 *D SDFFQXL
*I *764:CK I *C 119.625 67.715 *L 0.00173 *D SDFFQX1
*I *869:CK I *C 119.335 70.905 *L 0.00175 *D SDFFQXL
*I *748:CK I *C 115.565 65.685 *L 0.00173 *D SDFFQX1
*I *881:CK I *C 91.205 112.665 *L 0.00175 *D SDFFQXL
*I *743:CK I *C 63.945 104.255 *L 0.00173 *D SDFFQX1
*I *1241:CK I *C 125.715 91.785 *L 0.00173 *D SDFFQX1
*I *854:CK I *C 125.715 76.125 *L 0.00175 *D SDFFQXL
*I *849:CK I *C 81.925 112.665 *L 0.00175 *D SDFFQXL
*I *909:CK I *C 71.195 107.445 *L 0.00175 *D SDFFQXL
*I *1255:CK I *C 124.265 93.815 *L 0.00173 *D SDFFQX1
*I *747:CK I *C 88.305 117.885 *L 0.00173 *D SDFFQX1
*I *763:CK I *C 123.975 65.685 *L 0.00173 *D SDFFQX1
*I *834:CK I *C 82.505 117.885 *L 0.00173 *D SDFFQX1
*I *866:CK I *C 94.685 109.475 *L 0.00175 *D SDFFQXL
*I *761:CK I *C 96.715 117.885 *L 0.00173 *D SDFFQX1
*I *1252:CK I *C 62.205 99.035 *L 0.00173 *D SDFFQX1
*I *1240:CK I *C 97.005 104.255 *L 0.00173 *D SDFFQX1
*I *759:CK I *C 67.715 114.695 *L 0.00173 *D SDFFQX1
*I *867:CK I *C 123.975 102.225 *L 0.00175 *D SDFFQXL
*I *1245:CK I *C 125.135 62.495 *L 0.00173 *D SDFFQX1
*I *807:CK I *C 120.495 104.255 *L 0.00173 *D SDFFQX1
*I *1254:CK I *C 101.935 99.035 *L 0.00173 *D SDFFQX1
*I *851:CK I *C 95.555 114.695 *L 0.00175 *D SDFFQXL
*I *776:CK I *C 82.505 123.105 *L 0.00173 *D SDFFQX1
*I *746:CK I *C 80.185 119.915 *L 0.00173 *D SDFFQX1
*I *744:CK I *C 71.195 119.915 *L 0.00173 *D SDFFQX1
*I *819:CK I *C 62.495 123.105 *L 0.00175 *D SDFFQXL
*I *777:CK I *C 90.915 123.105 *L 0.00173 *D SDFFQX1
*I *762:CK I *C 122.815 107.445 *L 0.00173 *D SDFFQX1
*I *837:CK I *C 122.815 112.665 *L 0.00175 *D SDFFQXL
*I *774:CK I *C 71.485 123.105 *L 0.00173 *D SDFFQX1
*I *804:CK I *C 62.205 119.915 *L 0.00173 *D SDFFQX1
*I *732:CK I *C 118.755 114.695 *L 0.00173 *D SDFFQX1
*I *729:CK I *C 60.465 117.885 *L 0.00173 *D SDFFQX1
*I *882:CK I *C 114.115 112.665 *L 0.00175 *D SDFFQXL
*I *879:CK I *C 59.595 112.665 *L 0.00175 *D SDFFQXL
*I *806:CK I *C 111.505 119.915 *L 0.00175 *D SDFFQXL
*I *822:CK I *C 112.955 107.445 *L 0.00175 *D SDFFQXL
*I *864:CK I *C 58.435 109.475 *L 0.00175 *D SDFFQXL
*I *731:CK I *C 110.345 114.695 *L 0.00173 *D SDFFQX1
*I *821:CK I *C 108.605 123.105 *L 0.00175 *D SDFFQXL
*I *863:CK I *C 51.475 112.665 *L 0.00175 *D SDFFQXL
*I *1226:CK I *C 108.895 102.225 *L 0.00173 *D SDFFQX1
*I *836:CK I *C 105.995 112.665 *L 0.00175 *D SDFFQXL
*I *848:CK I *C 50.315 114.695 *L 0.00175 *D SDFFQXL
*I *788:CK I *C 53.215 119.915 *L 0.00173 *D SDFFQX1
*I *773:CK I *C 53.215 123.105 *L 0.00173 *D SDFFQX1
*I *758:CK I *C 51.185 117.885 *L 0.00173 *D SDFFQX1
*I *833:CK I *C 40.745 119.915 *L 0.00173 *D SDFFQX1
*I *832:CK I *C 35.815 117.885 *L 0.00173 *D SDFFQX1
*I *862:CK I *C 35.525 114.695 *L 0.00173 *D SDFFQX1
*I *818:CK I *C 29.435 107.445 *L 0.00173 *D SDFFQX1
*I *847:CK I *C 29.435 102.225 *L 0.00175 *D SDFFQXL
*I *728:CK I *C 26.825 117.885 *L 0.00173 *D SDFFQX1
*I *817:CK I *C 28.275 112.665 *L 0.00173 *D SDFFQX1
*I *803:CK I *C 26.535 123.105 *L 0.00173 *D SDFFQX1
*I *802:CK I *C 18.705 117.885 *L 0.00173 *D SDFFQX1
*I *1222:CK I *C 32.915 99.035 *L 0.00173 *D SDFFQX1
*I *1250:CK I *C 30.015 93.815 *L 0.00173 *D SDFFQX1
*I *727:CK I *C 18.415 114.695 *L 0.00173 *D SDFFQX1
*I *877:CK I *C 12.905 112.665 *L 0.00175 *D SDFFQXL
*I *757:CK I *C 13.775 107.445 *L 0.00173 *D SDFFQX1
*I *772:CK I *C 5.365 109.475 *L 0.00173 *D SDFFQX1
*I *892:CK I *C 5.365 102.225 *L 0.00173 *D SDFFQX1
*I *907:CK I *C 5.365 97.005 *L 0.00175 *D SDFFQXL
*I *787:CK I *C 5.365 99.035 *L 0.00173 *D SDFFQX1
*I *906:CK I *C 5.365 93.815 *L 0.00175 *D SDFFQXL
*I *891:CK I *C 5.075 91.785 *L 0.00173 *D SDFFQX1
*I *756:CK I *C 13.195 91.785 *L 0.00173 *D SDFFQX1
*I *876:CK I *C 13.195 88.595 *L 0.00175 *D SDFFQXL
*I *861:CK I *C 13.775 97.005 *L 0.00173 *D SDFFQX1
*I *771:CK I *C 5.365 83.375 *L 0.00173 *D SDFFQX1
*I *786:CK I *C 5.365 78.155 *L 0.00173 *D SDFFQX1
*I *742:CK I *C 14.645 99.035 *L 0.00173 *D SDFFQX1
*I *741:CK I *C 16.385 81.345 *L 0.00173 *D SDFFQX1
*I *769:CK I *C 5.075 76.125 *L 0.00173 *D SDFFQX1
*I *904:CK I *C 5.365 70.905 *L 0.00175 *D SDFFQXL
*I *889:CK I *C 5.075 65.685 *L 0.00173 *D SDFFQX1
*I *801:CK I *C 21.605 88.595 *L 0.00173 *D SDFFQX1
*I *754:CK I *C 12.905 65.685 *L 0.00173 *D SDFFQX1
*I *784:CK I *C 5.075 62.495 *L 0.00173 *D SDFFQX1
*I *905:CK I *C 5.365 57.275 *L 0.00175 *D SDFFQXL
*I *799:CK I *C 20.155 60.465 *L 0.00173 *D SDFFQX1
*I *785:CK I *C 5.075 50.025 *L 0.00173 *D SDFFQX1
*I *890:CK I *C 5.075 46.835 *L 0.00173 *D SDFFQX1
*I *724:CK I *C 20.445 62.495 *L 0.00173 *D SDFFQX1
*I *739:CK I *C 17.255 70.905 *L 0.00173 *D SDFFQX1
*I *860:CK I *C 13.195 46.835 *L 0.00173 *D SDFFQX1
*I *814:CK I *C 28.565 62.495 *L 0.00173 *D SDFFQX1
*I *874:CK I *C 11.745 60.465 *L 0.00173 *D SDFFQX1
*I *755:CK I *C 13.485 57.275 *L 0.00173 *D SDFFQX1
*I *875:CK I *C 12.325 52.055 *L 0.00173 *D SDFFQX1
*I *859:CK I *C 13.195 72.935 *L 0.00173 *D SDFFQX1
*I *725:CK I *C 18.415 44.805 *L 0.00173 *D SDFFQX1
*I *831:CK I *C 30.305 72.935 *L 0.00173 *D SDFFQX1
*I *770:CK I *C 14.355 41.615 *L 0.00173 *D SDFFQX1
*I *1387:CK I *C 11.745 41.615 *L 0.00173 *D SDFFQX1
*I *844:CK I *C 31.465 70.905 *L 0.00173 *D SDFFQX1
*I *740:CK I *C 21.315 46.835 *L 0.00173 *D SDFFQX1
*I *1386:CK I *C 20.735 39.585 *L 0.00173 *D SDFFQX1
*I *726:CK I *C 31.755 78.155 *L 0.00173 *D SDFFQX1
*I *1249:CK I *C 39.875 70.905 *L 0.00173 *D SDFFQX1
*I *846:CK I *C 35.235 81.345 *L 0.00175 *D SDFFQXL
*I *1247:CK I *C 42.775 67.715 *L 0.00173 *D SDFFQX1
*I *845:CK I *C 29.145 46.835 *L 0.00175 *D SDFFQXL
*I *800:CK I *C 18.125 36.395 *L 0.00173 *D SDFFQX1
*I *1248:CK I *C 17.255 34.365 *L 0.00173 *D SDFFQX1
*I *1384:CK I *C 5.075 34.075 *L 0.00169 *D SDFFHQX4
*I *816:CK I *C 31.175 86.565 *L 0.00173 *D SDFFQX1
*I *1219:CK I *C 41.035 67.715 *L 0.00173 *D SDFFQX1
*I *1235:CK I *C 44.225 76.125 *L 0.00173 *D SDFFQX1
*I *829:CK I *C 43.065 62.495 *L 0.00173 *D SDFFQX1
*I *830:CK I *C 32.625 36.395 *L 0.00173 *D SDFFQX1
*I *1236:CK I *C 35.525 88.595 *L 0.00173 *D SDFFQX1
*I *1233:CK I *C 30.595 55.245 *L 0.00173 *D SDFFQX1
*I *1385:CK I *C 17.545 29.145 *L 0.00173 *D SDFFQX1
*I *815:CK I *C 31.755 44.805 *L 0.00173 *D SDFFQX1
*I *1253:CK I *C 48.285 70.905 *L 0.00173 *D SDFFQX1
*I *1234:CK I *C 31.175 29.145 *L 0.00173 *D SDFFQX1
*P *3 I *C 0 0 *L 0
*I *1221:CK I *C 39.295 86.565 *L 0.00173 *D SDFFQX1
*I *1383:CK I *C 34.655 23.925 *L 0.00173 *D SDFFQX1
*I *1220:CK I *C 39.585 29.145 *L 0.00173 *D SDFFQX1
*I *1412:CK I *C 35.815 15.515 *L 0.00173 *D SDFFQX1
*I *1414:CK I *C 44.515 15.515 *L 0.00173 *D SDFFQX1
*I *925:CK I *C 41.905 25.955 *L 0.00173 *D SDFFQX1

*CAP
1 *3:2 7.65207e-05
2 *3:3 7.65207e-05
3 *3:4 0.000259674
4 *3:5 0.000259674
5 *3:6 0.000306083
6 *3:7 0.00033159
7 *3:8 2.16395e-05
8 *3:9 0.000127535
9 *3:10 2.16395e-05
10 *3:11 0.000129837
11 *3:12 0.000102028
12 *3:14 0.000129837
13 *3:15 0.000408617
14 *3:17 0.000551191
15 *3:18 2.16395e-05
16 *3:19 0.000445723
17 *3:20 2.61369e-05
18 *3:21 5.10138e-05
19 *3:22 0.00028151
20 *3:24 2.61369e-05
21 *3:25 5.10138e-05
22 *3:26 0.000313642
23 *3:29 0.00041819
24 *3:32 0.000287505
25 *3:33 2.34591e-05
26 *3:34 0.000182958
27 *3:35 0.00028151
28 *3:36 2.34591e-05
29 *3:37 0.000140755
30 *3:38 0.00028151
31 *3:40 0.000140755
32 *3:41 0.000749461
33 *3:43 7.84106e-05
34 *3:44 0.000749461
35 *3:45 7.84106e-05
36 *3:46 9.92992e-05
37 *3:49 9.92992e-05
38 *3:51 0.000242672
39 *3:52 0.000242672
40 *3:53 7.44744e-05
41 *3:54 0.000446711
42 *3:55 6.61832e-05
43 *3:56 0.000392523
44 *3:57 0.000705954
45 *3:58 0.000145578
46 *3:59 2.02866e-05
47 *3:60 0.000661832
48 *3:62 0.000145578
49 *3:63 0.000395139
50 *3:64 2.20611e-05
51 *3:67 4.05732e-05
52 *3:68 0.000469305
53 *3:69 0.000270804
54 *3:71 4.05732e-05
55 *3:72 0.000608598
56 *3:73 7.41657e-05
57 *3:74 0.000270804
58 *3:76 0.000608598
59 *3:77 2.16395e-05
60 *3:78 2.07968e-05
61 *3:79 4.15936e-05
62 *3:80 2.16395e-05
63 *3:81 2.07968e-05
64 *3:82 0.000291155
65 *3:84 2.55069e-05
66 *3:86 0.000249561
67 *3:88 2.55069e-05
68 *3:90 0.000142006
69 *3:92 0.000151476
70 *3:93 0.000142006
71 *3:94 0.000151476
72 *3:95 0.000145578
73 *3:97 0.000187171
74 *3:98 0.000457529
75 *3:99 0.000223152
76 *3:100 0.000415936
77 *3:102 0.000588311
78 *3:103 0.000385445
79 *3:105 2.07968e-05
80 *3:106 0.000365159
81 *3:107 4.05732e-05
82 *3:108 0.000365159
83 *3:109 2.07968e-05
84 *3:110 8.31871e-05
85 *3:111 0.000166374
86 *3:112 0.000561513
87 *3:113 2.02866e-05
88 *3:115 0.000353545
89 *3:116 0.000166374
90 *3:117 0.000561513
91 *3:121 0.000270358
92 *3:122 4.05732e-05
93 *3:123 0.000507165
94 *3:125 0.00012172
95 *3:126 4.05732e-05
96 *3:127 0.000486878
97 *3:128 2.02866e-05
98 *3:129 0.00012172
99 *3:131 6.23904e-05
100 *3:132 4.15936e-05
101 *3:133 0.00018286
102 *3:134 6.23904e-05
103 *3:135 4.15936e-05
104 *3:136 0.000999081
105 *3:139 2.16395e-05
106 *3:140 0.000816221
107 *3:143 2.16395e-05
108 *3:144 4.32789e-05
109 *3:146 0.000129837
110 *3:147 2.16395e-05
111 *3:148 0.000346231
112 *3:149 0.000127535
113 *3:151 0.000238034
114 *3:153 0.000178548
115 *3:154 0.000280576
116 *3:155 0.000108197
117 *3:156 5.10138e-05
118 *3:157 0.000306083
119 *3:158 0.000108197
120 *3:159 4.32789e-05
121 *3:160 2.55069e-05
122 *3:161 0.000151476
123 *3:162 0.000612166
124 *3:163 4.32789e-05
125 *3:165 0.000151476
126 *3:166 0.00132805
127 *3:169 2.55069e-05
128 *3:171 0.000715886
129 *3:172 0.00033159
130 *3:174 2.16089e-05
131 *3:175 0.000238034
132 *3:176 0.000306083
133 *3:178 2.16089e-05
134 *3:179 0.000238034
135 *3:181 2.61838e-05
136 *3:184 0.000576045
137 *3:185 0.000366616
138 *3:186 0.000549861
139 *3:187 0.000427029
140 *3:188 2.16089e-05
141 *3:190 6.04132e-05
142 *3:191 0.000410569
143 *3:192 0.000318325
144 *3:193 0.000626658
145 *3:194 0.000183287
146 *3:195 0.000318325
147 *3:196 0.000237698
148 *3:197 2.61838e-05
149 *3:198 0.000209471
150 *3:199 0.000375385
151 *3:201 0.000733148
152 *3:202 2.61838e-05
153 *3:204 0.000183287
154 *3:205 0.000989652
155 *3:206 0.000759331
156 *3:209 0.000151262
157 *3:210 0.000157103
158 *3:212 0.000614267
159 *3:213 2.16089e-05
160 *3:214 2.61838e-05
161 *3:216 0.000151262
162 *3:217 8.64356e-05
163 *3:218 0.000545818
164 *3:219 0.000151262
165 *3:223 8.64356e-05
166 *3:224 0.00092789
167 *3:225 0.000145551
168 *3:226 0.000497004
169 *3:227 0.000157103
170 *3:229 0.000235655
171 *3:230 0.000527624
172 *3:232 0.000187693
173 *3:233 0.00038896
174 *3:234 2.61838e-05
175 *3:235 0.000785515
176 *3:236 0.000235655
177 *3:237 0.000187693
178 *3:239 0.000187693
179 *3:240 2.16089e-05
180 *3:241 0.000157103
181 *3:242 2.61838e-05
182 *3:243 2.16089e-05
183 *3:244 0.000628412
184 *3:245 2.16089e-05
185 *3:246 0.000187693
186 *3:248 0.000523677
187 *3:249 0.000288022
188 *3:251 2.16089e-05
189 *3:252 2.16089e-05
190 *3:253 0.00102675
191 *3:255 0.000576045
192 *3:256 0.000130919
193 *3:257 2.16089e-05
194 *3:260 0.000259307
195 *3:261 0.000366574
196 *3:262 0.0011461
197 *3:263 0.000237698
198 *3:264 5.23677e-05
199 *3:265 0.000259307
200 *3:266 2.16089e-05
201 *3:267 0.000637652
202 *3:268 0.000237698
203 *3:269 0.000366574
204 *3:271 0.000140964
205 *3:272 0.000653024
206 *3:274 0.000259307
207 *3:276 0.000637652
208 *3:278 0.000208987
209 *3:279 4.32178e-05
210 *3:280 0.00056088
211 *3:281 0.000439446
212 *3:284 0.000392758
213 *3:286 0.000208987
214 *3:287 4.32178e-05
215 *3:288 0.00056088
216 *3:289 2.412e-05
217 *3:290 0.000315071
218 *3:291 0.000392758
219 *3:293 0.000451338
220 *3:296 0.000288815
221 *3:297 0.000617676
222 *3:298 0.000151262
223 *3:299 0.000626859
224 *3:301 0.000288815
225 *3:303 0.000424296
226 *3:304 0.000151262
227 *3:306 2.56997e-05
228 *3:307 0.00017552
229 *3:308 0.00016884
230 *3:310 0.000179648
231 *3:311 0.000121691
232 *3:313 2.56997e-05
233 *3:315 0.000578879
234 *3:316 2.412e-05
235 *3:317 0.000179648
236 *3:318 0.000457529
237 *3:320 0.000434159
238 *3:321 5.25118e-05
239 *3:322 0.000183791
240 *3:323 2.43381e-05
241 *3:324 0.000733347
242 *3:326 5.25118e-05
243 *3:328 5.25118e-05
244 *3:329 0.000183791
245 *3:330 2.43381e-05
246 *3:331 2.52156e-05
247 *3:332 0.000275818
248 *3:333 0.000157535
249 *3:337 2.52156e-05
250 *3:338 2.52156e-05
251 *3:339 0.000410039
252 *3:340 0.000105024
253 *3:345 2.52156e-05
254 *3:346 0.000410039
255 *3:350 0.000183791
256 *3:353 2.62559e-05
257 *3:354 0.000315071
258 *3:355 0.00019296
259 *3:356 2.412e-05
260 *3:357 0.000157535
261 *3:358 0.00019296
262 *3:359 2.412e-05
263 *3:360 2.412e-05
264 *3:361 0.00013128
265 *3:363 2.412e-05
266 *3:364 0.00013128
267 *3:366 9.64799e-05
268 *3:367 0.000530639
269 *3:368 0.000434159
270 *3:369 0.000183791
271 *3:370 2.62559e-05
272 *3:372 0.000183791
273 *3:373 0.000761421
274 *3:375 0.00136531
275 *3:376 0.00016884
276 *3:378 0.000682475
277 *3:380 0.0006049
278 *3:381 0.000130744
279 *3:382 0.000410039
280 *3:384 0.00043606
281 *3:386 0.000434664
282 *3:387 7.84106e-05
283 *3:388 0.000410039
284 *3:389 0.000236293
285 *3:390 0.000582504
286 *3:392 7.84701e-05
287 *3:393 0.000262548
288 *3:394 0.00014784
289 *3:397 0.000209154
290 *3:398 0.000436114
291 *3:399 2.62548e-05
292 *3:400 0.000130435
293 *3:401 0.000209095
294 *3:402 2.34591e-05
295 *3:403 0.000436114
296 *3:405 0.000839314
297 *3:406 7.84106e-05
298 *3:407 2.34591e-05
299 *3:408 0.000164214
300 *3:409 0.000761389
301 *3:411 2.42286e-05
302 *3:412 0.000708879
303 *3:413 0.000140755
304 *3:414 2.34591e-05
305 *3:416 0.000140755
306 *3:417 2.62548e-05
307 *3:418 0.000735134
308 *3:419 2.42286e-05
309 *3:420 2.42286e-05
310 *3:421 0.000140755
311 *3:423 0.000104726
312 *3:425 0.000314972
313 *3:427 0.000460343
314 *3:428 0.00041819
315 *3:429 0.000104726
316 *3:431 0.000266514
317 *3:433 4.84572e-05
318 *3:434 0.000436114
319 *3:436 0.000601148
320 *3:437 0.00028944
321 *3:438 2.54794e-05
322 *3:439 0.000124296
323 *3:440 0.000210038
324 *3:441 0.000182958
325 *3:443 0.00031356
326 *3:444 2.54794e-05
327 *3:445 0.000198408
328 *3:446 0.000472586
329 *3:447 0.00025805
330 *3:450 2.412e-05
331 *3:452 4.98381e-05
332 *3:453 7.41121e-05
333 *3:454 0.000262548
334 *3:456 0.00025805
335 *3:457 7.85892e-05
336 *3:459 4.98381e-05
337 *3:460 0.000498381
338 *3:461 0.000290743
339 *3:463 0.000784106
340 *3:465 0.000444505
341 *3:467 0.000598057
342 *3:468 0.000290743
343 *3:469 0.00109775
344 *3:470 0.00115002
345 *3:471 0.000187673
346 *3:472 9.96762e-05
347 *3:474 0.000157529
348 *3:475 0.000339779
349 *3:477 0.000784106
350 *3:478 2.34591e-05
351 *3:479 0.000304969
352 *3:480 0.000172928
353 *3:481 0.000623686
354 *3:482 2.61369e-05
355 *3:483 0.00025805
356 *3:485 2.34591e-05
357 *3:486 2.34591e-05
358 *3:487 0.000209869
359 *3:488 0.000117296
360 *3:489 0.000172928
361 *3:490 0.000723115
362 *3:491 2.42286e-05
363 *3:492 0.000164214
364 *3:493 0.00025805
365 *3:494 2.34591e-05
366 *3:496 0.000209869
367 *3:497 0.000130684
368 *3:498 0.00079741
369 *3:499 0.000256958
370 *3:500 0.00014784
371 *3:501 2.42286e-05
372 *3:502 0.000434664
373 *3:503 2.61369e-05
374 *3:505 4.82399e-05
375 *3:506 0.000130684
376 *3:507 0.000839543
377 *3:508 0.000492801
378 *3:509 0.00014784
379 *3:511 0.00029509
380 *3:512 2.61369e-05
381 *3:513 2.61369e-05
382 *3:514 4.82399e-05
383 *3:515 9.38365e-05
384 *3:516 4.21329e-05
385 *3:518 0.000468161
386 *3:519 2.46401e-05
387 *3:521 2.46401e-05
388 *3:522 0.000621381
389 *3:523 2.61369e-05
390 *3:526 0.000516101
391 *3:527 0.000286182
392 *3:528 0.000154175
393 *3:530 0.000642394
394 *3:531 0.000775094
395 *3:535 0.00053956
396 *3:536 0.000352224
397 *3:537 0.000231262
398 *3:538 0.000873656
399 *3:539 0.00021959
400 *3:542 0.000156821
401 *3:543 0.000117296
402 *3:544 0.00017804
403 *3:545 6.6042e-05
404 *3:546 4.92801e-05
405 *3:547 7.70873e-05
406 *3:548 2.46401e-05
407 *3:549 0.000231262
408 *3:550 6.58771e-05
409 *3:551 0.000160682
410 *3:553 0.000156821
411 *3:554 0.000392053
412 *3:555 0.00017804
413 *3:556 0.000216566
414 *3:557 4.92801e-05
415 *3:558 0.0001232
416 *3:559 2.46401e-05
417 *3:560 0.00014784
418 *3:561 0.000427209
419 *3:562 0.000413183
420 *3:564 0.000392053
421 *3:565 2.2014e-05
422 *3:566 0.000216566
423 *3:568 0.000394241
424 *3:570 0.000394241
425 *3:571 0.000874056
426 *3:572 0.000275455
427 *3:575 0.000291321
428 *3:576 2.2014e-05
429 *3:577 9.88161e-05
430 *3:578 0.000271041
431 *3:579 0.000102783
432 *3:580 0.000246401
433 *3:581 2.56958e-05
434 *3:583 0.000446846
435 *3:584 2.29546e-05
436 *3:585 0.000417222
437 *3:586 0.000680832
438 *3:588 9.88161e-05
439 *3:589 0.000727587
440 *3:590 0.000102783
441 *3:591 0.000513916
442 *3:592 2.56958e-05
443 *3:593 6.61832e-05
444 *3:594 0.000241549
445 *3:595 0.000570935
446 *3:596 2.55069e-05
447 *3:597 0.00038951
448 *3:600 2.56958e-05
449 *3:601 0.000780656
450 *3:603 0.00048822
451 *3:604 2.56958e-05
452 *3:606 0.000242672
453 *3:607 0.000241549
454 *3:608 0.000153713
455 *3:610 2.55069e-05
456 *3:611 7.65207e-05
457 *3:613 0.00017248
458 *3:615 7.87643e-05
459 *3:617 2.46401e-05
460 *3:618 0.000640641
461 *3:620 0.000176488
462 *3:622 2.29546e-05
463 *3:623 0.000160682
464 *3:626 7.65207e-05
465 *3:627 0.00017248
466 *3:630 2.42286e-05
467 *3:631 2.46401e-05
468 *3:632 0.000640641
469 *3:633 0.000273073
470 *3:635 2.29546e-05
471 *3:636 0.000344319
472 *3:639 5.13916e-05
473 *3:640 0.000266514
474 *3:643 0.000273073
475 *3:645 0.000252501
476 *3:648 0.000102783
477 *3:649 0.000105019
478 *3:650 0.000242286
479 *3:651 0.000154427
480 *3:652 6.88638e-05
481 *3:653 0.000570935
482 *3:654 5.13916e-05
483 *3:656 0.000236293
484 *3:657 0.000105019
485 *3:658 0.000286794
486 *3:660 0.000592894
487 *3:661 0.000595614
488 *3:663 2.42286e-05
489 *3:664 0.000131274
490 *3:665 0.000105019
491 *3:666 0.000242672
492 *3:667 0.000173774
493 *3:668 2.1959e-05
494 *3:669 0.00059682
495 *3:670 0.000636547
496 *3:671 2.42286e-05
497 *3:672 0.000193829
498 *3:674 0.000132366
499 *3:676 0.000173774
500 *3:677 6.88638e-05
501 *3:678 0.00118471
502 *3:679 4.09329e-05
503 *3:681 2.50188e-05
504 *3:683 0.000193829
505 *3:685 0.000154427
506 *3:686 0.000273073
507 *3:688 4.41221e-05
508 *3:689 0.000229546
509 *3:691 0.000587892
510 *3:692 0.000125094
511 *3:693 0.000675507
512 *3:694 0.000656369
513 *3:695 0.000132366
514 *3:697 0.000273073
515 *3:698 4.41221e-05
516 *3:699 0.000160682
517 *3:700 2.1959e-05
518 *3:701 4.41221e-05
519 *3:702 0.000125094
520 *3:703 0.000975732
521 *3:704 0.000368396
522 *3:705 5.25096e-05
523 *3:706 0.000787643
524 *3:707 0.000173774
525 *3:711 8.78361e-05
526 *3:712 2.1959e-05
527 *3:713 4.41221e-05
528 *3:714 4.09329e-05
529 *3:715 0.000325244
530 *3:717 0.000368396
531 *3:718 0.000227126
532 *3:720 0.000183783
533 *3:721 0.000173774
534 *3:723 0.000197631
535 *3:726 4.09329e-05
536 *3:727 0.000225131
537 *3:729 0.000475357
538 *3:730 0.000739057
539 *3:732 0.000436114
540 *3:733 0.000198549
541 *3:735 0.000109795
542 *3:739 0.000595614
543 *3:740 0.00107581
544 *3:741 0.000100075
545 *3:742 0.000511932
546 *3:744 0.000436114
547 *3:745 0.000198549
548 *3:747 0.000665684
549 *3:748 2.50188e-05
550 *3:749 0.000370483
551 *3:750 0.000725545
552 *3:752 0.000143265
553 *3:753 2.50188e-05
554 *3:754 5.04785e-05
555 *3:755 2.62548e-05
556 *3:756 0.000273073
557 *3:757 0.000826366
558 *3:758 2.50188e-05
559 *3:759 0.00017987
560 *3:760 5.00376e-05
561 *3:761 0.000225131
562 *3:763 0.000143265
563 *3:765 0.000302871
564 *3:766 2.62548e-05
565 *3:768 0.000273073
566 *3:769 0.000160682
567 *3:770 8.78361e-05
568 *3:772 0.000616699
569 *3:774 0.000225131
570 *3:775 2.50188e-05
571 *3:777 0.000430023
572 *3:778 0.000252392
573 *3:780 8.82442e-05
574 *3:781 0.000197631
575 *3:782 8.78361e-05
576 *3:784 0.000436828
577 *3:787 5.00376e-05
578 *3:788 0.000225169
579 *3:789 0.000430023
580 *3:792 8.82442e-05
581 *3:793 2.1959e-05
582 *3:794 0.000175672
583 *3:796 0.000443521
584 *3:798 5.00376e-05
585 *3:799 0.000225131
586 *3:800 0.00020015
587 *3:801 0.000757177
588 *3:804 0.000204283
589 *3:807 0.000443521
590 *3:809 0.000225131
591 *3:811 5.04785e-05
592 *3:812 0.000706699
593 *3:814 0.000534807
594 *3:818 0.000725545
595 *3:821 0.00022525
596 *3:822 0.00022525
597 *3:823 0.000459061
598 *3:824 1.91752e-05
599 *3:825 0.000725545
600 *3:826 0.000163818
601 *3:827 6.14318e-05
602 *3:828 0.000163818
603 *3:829 6.14318e-05
604 *3:830 0.000128537
605 *3:831 1.91752e-05
606 *3:832 1.91752e-05
607 *3:834 2.52392e-05
608 *3:837 2.52392e-05
609 *3:838 0.000287628
610 *3:839 1.91752e-05
611 *3:842 2.52392e-05
612 *3:843 0.000176675
613 *3:844 0.000575256
614 *3:849 0.000151435
615 *3:851 0.000287628
616 *3:855 0.000143341
617 *3:857 1.83624e-05
618 *3:858 0.000593841
619 *3:859 0.000128537
620 *3:861 0.0004505
621 *3:862 0.000191752
622 *3:863 0.000440698
623 *3:864 7.57177e-05
624 *3:865 0.000191752
625 *3:866 1.91752e-05
626 *3:867 0.000330524
627 *3:868 0.000176675
628 *3:869 1.83624e-05
629 *3:870 1.91752e-05
630 *3:871 9.5876e-05
631 *3:872 8.19091e-05
632 *3:873 0.000151435
633 *3:874 0.000348886
634 *3:876 0.000383504
635 *3:877 8.19091e-05
636 *3:878 0.000143341
637 *3:879 5.04785e-05
638 *3:880 0.000330524
639 *3:881 7.67008e-05
640 *3:884 0.000287628
641 *3:886 0.000143341
642 *3:887 8.19091e-05
643 *3:888 0.000191752
644 *3:890 0.000191752
645 *3:892 0.000364965
646 *3:894 8.19091e-05
647 *3:895 0.000191752
648 *3:897 0.000115051
649 *3:898 0.000364965
650 *3:899 0.0005472
651 *3:900 0.000201987
652 *3:902 0.000110175
653 *3:903 2.1959e-05
654 *3:904 0.000569214
655 *3:905 0.000201987
656 *3:906 0.000110175
657 *3:907 2.1959e-05
658 *3:909 2.2014e-05
659 *3:911 0.000172577
660 *3:914 0.000138475
661 *3:915 0.000172577
662 *3:917 0.000138475
663 *3:918 1.83624e-05
664 *3:919 0.00011007
665 *3:920 1.83624e-05
666 *3:921 4.4028e-05
667 *3:922 6.6042e-05
668 *3:924 0.00035608
669 *3:926 0.00035608
670 *3:928 0.000165386
671 *3:929 0.000121358
672 *3:930 0.000836532
673 *3:931 0.00022525
674 *3:932 0.000138475
675 *3:933 0.00116674
676 *3:934 0.00022525
677 *3:936 0.000138475
678 *3:938 0.000374238
679 *3:942 0.000138475
680 *3:943 0.00035608
681 *3:945 0.000217604
682 *3:946 2.2014e-05
683 *3:947 0.000462294
684 *3:949 0.000462294
685 *3:951 0.000237387
686 *3:952 2.2014e-05
687 *3:953 0.000237387
688 *3:954 0.000138475
689 *3:955 0.00022014
690 *3:956 0.000494555
691 *3:957 0.000242154
692 *3:958 8.8056e-05
693 *3:959 0.000750686
694 *3:960 1.97822e-05
695 *3:961 2.2014e-05
696 *3:962 8.8056e-05
697 *3:964 0.000668716
698 *3:965 1.97822e-05
699 *3:966 0.000336298
700 *3:969 0.00027411
701 *3:971 0.000470581
702 *3:972 0.000336298
703 *3:974 4.94081e-05
704 *3:975 0.000505947
705 *3:977 0.000296448
706 *3:978 0.000190157
707 *3:979 3.53656e-05
708 *3:980 0.00024704
709 *3:981 0.000448543
710 *3:982 0.000190157
711 *3:985 0.000448543
712 *3:986 5.30485e-05
713 *3:990 0.000389022
714 *3:992 0.000335974
715 *3:994 0.000121009
716 *3:995 0.000293879
717 *3:997 0.00017287
718 *3:998 0.000477436
719 *3:999 5.30485e-05
720 *3:1000 0.000424388
721 *3:1001 0.000138296
722 *3:1002 1.7287e-05
723 *3:1003 0.000138296
724 *3:1004 0.000477476
725 *3:1006 3.53656e-05
726 *3:1007 0.000838589
727 *3:1008 3.53656e-05
728 *3:1009 4.07614e-05
729 *3:1010 0.000609644
730 *3:1012 4.07614e-05
731 *3:1013 4.07614e-05
732 *3:1014 0.0003784
733 *3:1017 4.07614e-05
734 *3:1018 4.07614e-05
735 *3:1019 0.000210222
736 *3:1021 0.000147155
737 *3:1022 4.07614e-05
738 *3:1023 6.11421e-05
739 *3:1024 6.30666e-05
740 *3:1025 0.000147155
741 *3:1028 6.11421e-05
742 *3:1029 0.000529899
743 *3:1033 0.000550279
744 *3:1034 2.03807e-05
745 *3:1036 4.07614e-05
746 *3:1037 0.000231244
747 *3:1038 0.000546577
748 *3:1039 0.000441466
749 *3:1040 6.30666e-05
750 *3:1041 0.0001892
751 *3:1042 0.000925839
752 *3:1043 0.000588622
753 *3:1046 2.10222e-05
754 *3:1047 2.03807e-05
755 *3:1048 0.000538491
756 *3:1049 0.000147155
757 *3:1051 0.000224188
758 *3:1052 2.03807e-05
759 *3:1053 2.06397e-05
760 *3:1054 0.000568676
761 *3:1055 6.11421e-05
762 *3:1056 0.000224188
763 *3:1058 2.06397e-05
764 *3:1059 4.12795e-05
765 *3:1060 0.000818893
766 *3:1061 6.11421e-05
767 *3:1062 0.000525555
768 *3:1065 4.12795e-05
769 *3:1066 2.06397e-05
770 *3:1067 0.000477688
771 *3:1069 2.10222e-05
772 *3:1070 0.000504533
773 *3:1073 2.06397e-05
774 *3:1074 4.12795e-05
775 *3:1075 6.82411e-05
776 *3:1077 0.000366853
777 *3:1081 4.12795e-05
778 *3:1082 2.06397e-05
779 *3:1083 0.000366853
780 *3:1086 0.000515993
781 *3:1089 0.000536633
782 *3:1090 0.000181976
783 *3:1092 4.12795e-05
784 *3:1093 6.82411e-05
785 *3:1094 0.000591423
786 *3:1095 0.000341206
787 *3:1096 6.82411e-05
788 *3:1097 6.19192e-05
789 *3:1098 0.000958161
790 *3:1099 0.000341206
791 *3:1100 2.06397e-05
792 *3:1102 6.19192e-05
793 *3:1103 4.12795e-05
794 *3:1104 0.000769655
795 *3:1105 0.000495354
796 *3:1106 2.06397e-05
797 *3:1108 4.12795e-05
798 *3:1109 6.10956e-05
799 *3:1110 0.000220941
800 *3:1111 0.000495354
801 *3:1112 2.06397e-05
802 *3:1113 0.000409447
803 *3:1116 6.10956e-05
804 *3:1117 6.10956e-05
805 *3:1118 2.06397e-05
806 *3:1120 2.2747e-05
807 *3:1121 0.000409447
808 *3:1124 6.10956e-05
809 *3:1125 0.000159229
810 *3:1127 0.000250217
811 *3:1128 0.000309596
812 *3:1131 0.000159229
813 *3:1132 0.000103199
814 *3:1133 0.000635586
815 *3:1134 0.000288956
816 *3:1135 2.06397e-05
817 *3:1137 0.000609349
818 *3:1139 0.000103199
819 *3:1140 2.06397e-05
820 *3:1141 0.000769655
821 *3:1143 0.000159229
822 *3:1144 0.000731039
823 *3:1145 2.2747e-05
824 *3:1146 2.06397e-05
825 *3:1147 6.10956e-05
826 *3:1148 0.000522223
827 *3:1150 0.000159229
828 *3:1151 0.000121691
829 *3:1153 2.2747e-05
830 *3:1155 6.10956e-05
831 *3:1157 0.000160684
832 *3:1158 2.06397e-05
833 *3:1159 0.000769918
834 *3:1164 4.07304e-05
835 *3:1165 2.06397e-05
836 *3:1166 0.000769918
837 *3:1168 0.000366573
838 *3:1170 2.43381e-05
839 *3:1171 0.000386939
840 *3:1172 0.000200855
841 *3:1174 7.30143e-05
842 *3:1175 6.10956e-05
843 *3:1176 2.00855e-05
844 *3:1177 0.000200855
845 *3:1178 4.86762e-05
846 *3:1179 0.000153984
847 *3:1180 0.000381625
848 *3:1181 2.00855e-05
849 *3:1182 0.000183287
850 *3:1183 0.000691809
851 *3:1184 0.000153984
852 *3:1185 4.0171e-05
853 *3:1186 0.000341454
854 *3:1188 4.07304e-05
855 *3:1189 0.000142556
856 *3:1190 0.000666145
857 *3:1191 2.56639e-05
858 *3:1193 0.000142556
859 *3:1194 2.03652e-05
860 *3:1197 7.41121e-05
861 *3:1198 4.86762e-05
862 *3:1199 0.000142556
863 *3:1200 0.000101826
864 *3:1203 0.000370561
865 *3:1204 0.000754481
866 *3:1205 0.000120513
867 *3:1206 8.14607e-05
868 *3:1207 0.000220941
869 *3:1208 0.000296448
870 *3:1209 5.02106e-05
871 *3:1210 0.000949186
872 *3:1212 0.000120513
873 *3:1214 0.000381625
874 *3:1215 0.000224272
875 *3:1216 5.02106e-05
876 *3:1217 0.000243381
877 *3:1220 0.00060079
878 *3:1223 0.000101826
879 *3:1224 0.000160684
880 *3:1225 0.000672815
881 *3:1227 0.000307967
882 *3:1229 0.000752083
883 *3:1230 0.000101826
884 *3:1231 0.000162921
885 *3:1232 0.000473462
886 *3:1234 2.56639e-05
887 *3:1235 0.000744254
888 *3:1236 0.000302588
889 *3:1239 0.00101826
890 *3:1240 2.49191e-05
891 *3:1241 0.000345857
892 *3:1242 0.000121691
893 *3:1244 0.000146029
894 *3:1245 0.000461951
895 *3:1246 0.000151294
896 *3:1247 0.000733347
897 *3:1250 0.000361539
898 *3:1251 0.000936799
899 *3:1252 2.4704e-05
900 *3:1253 0.000345857
901 *3:1254 0.000121691
902 *3:1255 0.000146029
903 *3:1256 2.43381e-05
904 *3:1257 0.00017552
905 *3:1258 0.000733347
906 *3:1259 2.00855e-05
907 *3:1260 0.000341454
908 *3:1262 8.14607e-05
909 *3:1263 0.000222336
910 *3:1265 0.000461951
911 *3:1267 2.43381e-05
912 *3:1268 0.000902677
913 *3:1269 2.43381e-05
914 *3:1271 2.03652e-05
915 *3:1273 0.00199304
916 *3:1274 0.000197632
917 *3:1275 0.000149514
918 *3:1277 0.000436287
919 *3:1278 2.56639e-05
920 *3:1281 7.56469e-05
921 *3:1282 0.00135402
922 *3:1283 2.43381e-05
923 *3:1284 2.03652e-05
924 *3:1285 0.00199304
925 *3:1286 2.49191e-05
926 *3:1287 0.000149514
927 *3:1289 0.000340733
928 *3:1291 7.56469e-05
929 *3:1293 0.000626859
930 *3:1296 0.000213092
931 *3:1297 2.49191e-05
932 *3:1299 0.000340733
933 *3:1301 0.000302588
934 *3:1304 0.000213092
935 *3:1305 0.00012352
936 *3:1308 0.000176509
937 *3:1309 0.000126078
938 *3:1310 8.04856e-06
939 *3:1311 0.00012352
940 *3:1313 0.000420974
941 *3:1315 1.60971e-05
942 *3:1317 2.50744e-05
943 *3:1318 0.000908691
944 *3 8.04856e-06
945 *3:1322 0.000428666
946 *3:1324 0.000512792
947 *3:1325 0.000655606
948 *3:1326 7.15677e-05
949 *3:1327 0.000226941
950 *3:1328 2.50744e-05
951 *3:1329 0.000608325
952 *3:1330 0.000297196
953 *3:1331 2.50744e-05
954 *3:1332 0.000536758
955 *3:1334 0.000297196
956 *3:1338 1.78919e-05
957 *3:1340 1.78919e-05

*RES
1 *3:1341 *925:CK 1.4
2 *3:1340 *3:1341 1.4
3 *3:1338 *3:1340 0.124289
4 *3:1336 *1414:CK 1.4
5 *3:1334 *3:1338 1.4
6 *3:1333 *1412:CK 1.4
7 *3:1332 *3:1336 1.4
8 *3:1331 *1220:CK 1.4
9 *3:1330 *3:1334 1.49146
10 *3:1329 *3:1333 1.4
11 *3:1329 *3:1332 3.72866
12 *3:1328 *3:1331 0.124289
13 *3:1327 *3:1330 1.4
14 *3:1326 *3:1329 0.497155
15 *3:1325 *3:1328 1.4
16 *3:1325 *3:1327 1.11855
17 *3:1324 *3:1326 1.4
18 *3:1322 *3:1325 2.11281
19 *3:1318 *3:1324 3.60422
20 *3:1318 *1383:CK 1.4
21 *3:1317 *3:1322 1.4
22 *3:1316 *1221:CK 1.4
23 *3:1315 *3 0.0621444
24 *3:1314 *1234:CK 1.4
25 *3:1313 *3:1318 2.23716
26 *3:1313 *3:1317 0.124289
27 *3:1311 *3:1316 1.4
28 *3:1310 *3:1315 0.0621444
29 *3:1309 *3:1314 1.4
30 *3:1308 *3:1313 1.4
31 *3:1306 *1253:CK 1.4
32 *3:1305 *3:1311 0.621414
33 *3:1304 *3:1310 1.4
34 *3:1301 *3:1309 0.621414
35 *3:1301 *3:1308 0.86998
36 *3:1300 *815:CK 1.4
37 *3:1299 *3:1306 1.4
38 *3:1297 *3:1305 1.4
39 *3:1296 *3:1304 1.61575
40 *3:1295 *1385:CK 1.4
41 *3:1294 *1233:CK 1.4
42 *3:1293 *3:1301 1.4
43 *3:1291 *3:1300 1.4
44 *3:1289 *3:1299 1.73996
45 *3:1287 *1236:CK 1.4
46 *3:1286 *3:1297 0.124289
47 *3:1285 *3:1296 1.4
48 *3:1284 *3:1295 1.4
49 *3:1283 *3:1294 1.4
50 *3:1282 *3:1293 3.10721
51 *3:1282 *830:CK 1.4
52 *3:1281 *3:1291 0.372849
53 *3:1280 *829:CK 1.4
54 *3:1278 *3:1289 1.4
55 *3:1277 *1235:CK 1.4
56 *3:1275 *3:1287 0.745732
57 *3:1274 *3:1286 1.4
58 *3:1273 *3:1285 14.5416
59 *3:1271 *3:1284 0.124283
60 *3:1269 *3:1283 0.124283
61 *3:1268 *3:1282 3.60437
62 *3:1268 *3:1281 1.4
63 *3:1267 *3:1280 1.4
64 *3:1266 *1219:CK 1.4
65 *3:1265 *3:1278 0.124283
66 *3:1265 *3:1277 2.11281
67 *3:1264 *816:CK 1.4
68 *3:1263 *3:1275 1.4
69 *3:1263 *3:1274 0.994263
70 *3:1262 *3:1273 1.4
71 *3:1261 *1384:CK 1.4
72 *3:1260 *3:1271 1.4
73 *3:1259 *1248:CK 1.4
74 *3:1258 *3:1269 1.4
75 *3:1257 *3:1268 0.87002
76 *3:1256 *3:1267 0.124283
77 *3:1255 *3:1266 1.4
78 *3:1254 *3:1265 1.4
79 *3:1253 *3:1264 1.4
80 *3:1252 *3:1263 0.124283
81 *3:1251 *3:1262 0.497132
82 *3:1251 *3:1261 1.4
83 *3:1250 *3:1260 2.11282
84 *3:1250 *3:1259 0.124283
85 *3:1247 *3:1258 3.60431
86 *3:1246 *3:1257 1.4
87 *3:1245 *3:1256 1.4
88 *3:1244 *3:1255 0.745696
89 *3:1242 *3:1254 0.621413
90 *3:1241 *3:1253 1.73996
91 *3:1240 *3:1252 1.4
92 *3:1239 *3:1251 5.21989
93 *3:1239 *3:1250 1.4
94 *3:1238 *800:CK 1.4
95 *3:1237 *845:CK 1.4
96 *3:1236 *3:1247 1.4
97 *3:1236 *3:1246 0.745697
98 *3:1235 *3:1245 2.23709
99 *3:1235 *3:1244 1.4
100 *3:1235 *1247:CK 1.4
101 *3:1234 *3:1242 1.4
102 *3:1232 *3:1241 1.4
103 *3:1232 *3:1240 0.124289
104 *3:1231 *3:1239 0.994265
105 *3:1230 *3:1238 1.4
106 *3:1229 *3:1237 1.4
107 *3:1229 *3:1236 0.745697
108 *3:1227 *3:1235 1.36711
109 *3:1227 *3:1234 0.124283
110 *3:1225 *846:CK 1.4
111 *3:1225 *3:1232 2.2372
112 *3:1224 *3:1231 1.4
113 *3:1223 *3:1230 0.621416
114 *3:1220 *3:1229 3.35564
115 *3:1218 *1249:CK 1.4
116 *3:1217 *3:1227 1.4
117 *3:1216 *726:CK 1.4
118 *3:1215 *3:1225 1.1186
119 *3:1214 *3:1224 0.994266
120 *3:1214 *3:1223 1.4
121 *3:1213 *1386:CK 1.4
122 *3:1212 *740:CK 1.4
123 *3:1212 *3:1220 1.4
124 *3:1211 *844:CK 1.4
125 *3:1210 *3:1218 1.4
126 *3:1210 *3:1217 1.24283
127 *3:1209 *3:1216 0.248574
128 *3:1208 *3:1215 1.4
129 *3:1207 *3:1214 1.36712
130 *3:1206 *3:1213 1.4
131 *3:1205 *3:1212 0.7457
132 *3:1204 *3:1211 1.4
133 *3:1204 *3:1210 3.6042
134 *3:1203 *3:1209 1.4
135 *3:1203 *3:1208 1.49139
136 *3:1200 *3:1207 1.4
137 *3:1200 *3:1206 0.497132
138 *3:1199 *3:1205 1.4
139 *3:1198 *3:1204 0.248565
140 *3:1197 *3:1203 0.372849
141 *3:1196 *1387:CK 1.4
142 *3:1195 *770:CK 1.4
143 *3:1194 *3:1200 0.124283
144 *3:1193 *3:1199 0.869982
145 *3:1191 *3:1198 1.4
146 *3:1190 *3:1197 1.4
147 *3:1189 *3:1196 1.4
148 *3:1188 *3:1195 1.4
149 *3:1186 *3:1194 1.4
150 *3:1185 *3:1193 1.4
151 *3:1184 *831:CK 1.4
152 *3:1183 *3:1191 0.124283
153 *3:1183 *3:1190 3.23136
154 *3:1182 *3:1189 0.869982
155 *3:1182 *3:1188 0.248566
156 *3:1181 *725:CK 1.4
157 *3:1180 *3:1186 2.11282
158 *3:1180 *3:1185 0.248567
159 *3:1179 *3:1184 0.745696
160 *3:1178 *3:1183 1.4
161 *3:1177 *3:1182 1.4
162 *3:1176 *3:1181 0.124283
163 *3:1175 *3:1180 1.4
164 *3:1174 *3:1179 1.4
165 *3:1174 *3:1178 0.248565
166 *3:1172 *3:1177 1.24283
167 *3:1171 *3:1176 1.4
168 *3:1171 *3:1175 0.372849
169 *3:1170 *3:1174 0.124283
170 *3:1169 *859:CK 1.4
171 *3:1168 *3:1172 1.4
172 *3:1168 *3:1171 1.98853
173 *3:1166 *3:1170 1.4
174 *3:1165 *3:1169 1.4
175 *3:1164 *3:1168 0.248566
176 *3:1163 *875:CK 1.4
177 *3:1159 *3:1166 3.72848
178 *3:1158 *3:1165 0.124283
179 *3:1157 *3:1164 1.4
180 *3:1155 *3:1163 1.4
181 *3:1154 *755:CK 1.4
182 *3:1153 *874:CK 1.4
183 *3:1152 *814:CK 1.4
184 *3:1151 *3:1159 1.4
185 *3:1150 *3:1158 1.4
186 *3:1148 *3:1157 0.994266
187 *3:1148 *860:CK 1.4
188 *3:1147 *3:1155 0.372849
189 *3:1146 *3:1154 1.4
190 *3:1145 *3:1153 0.124284
191 *3:1144 *3:1152 1.4
192 *3:1144 *3:1151 0.621413
193 *3:1143 *3:1150 0.869985
194 *3:1142 *739:CK 1.4
195 *3:1141 *3:1148 2.2371
196 *3:1141 *3:1147 1.4
197 *3:1140 *3:1146 0.124283
198 *3:1139 *3:1145 1.4
199 *3:1137 *3:1144 3.47992
200 *3:1135 *3:1143 1.4
201 *3:1134 *3:1142 1.4
202 *3:1133 *3:1141 2.2371
203 *3:1133 *3:1140 1.4
204 *3:1132 *3:1139 0.621415
205 *3:1131 *724:CK 1.4
206 *3:1131 *3:1137 1.4
207 *3:1130 *890:CK 1.4
208 *3:1128 *3:1135 0.124283
209 *3:1128 *3:1134 1.73996
210 *3:1127 *3:1133 1.24284
211 *3:1127 *3:1132 1.4
212 *3:1125 *3:1131 0.869985
213 *3:1124 *3:1130 1.4
214 *3:1123 *785:CK 1.4
215 *3:1121 *3:1128 1.4
216 *3:1120 *3:1127 0.124284
217 *3:1119 *799:CK 1.4
218 *3:1118 *3:1125 1.4
219 *3:1117 *3:1124 0.372849
220 *3:1116 *3:1123 1.4
221 *3:1115 *905:CK 1.4
222 *3:1113 *3:1121 2.2371
223 *3:1112 *3:1120 1.4
224 *3:1111 *3:1119 1.4
225 *3:1111 *3:1118 0.124283
226 *3:1110 *3:1117 1.4
227 *3:1109 *3:1116 0.372849
228 *3:1108 *3:1115 1.4
229 *3:1107 *784:CK 1.4
230 *3:1106 *3:1113 1.4
231 *3:1105 *3:1112 0.124283
232 *3:1105 *3:1111 2.85851
233 *3:1104 *3:1110 1.36712
234 *3:1104 *3:1109 1.4
235 *3:1103 *3:1108 0.248566
236 *3:1102 *3:1107 1.4
237 *3:1100 *3:1106 0.124283
238 *3:1099 *3:1105 1.4
239 *3:1098 *3:1104 3.10709
240 *3:1098 *3:1103 1.4
241 *3:1097 *3:1102 0.372849
242 *3:1096 *754:CK 1.4
243 *3:1096 *3:1100 1.4
244 *3:1095 *3:1099 1.86425
245 *3:1094 *3:1098 2.2371
246 *3:1094 *3:1097 1.4
247 *3:1093 *3:1096 0.372851
248 *3:1092 *3:1095 1.4
249 *3:1090 *3:1094 0.994268
250 *3:1089 *3:1093 1.4
251 *3:1089 *3:1092 0.248566
252 *3:1087 *801:CK 1.4
253 *3:1086 *3:1090 1.4
254 *3:1086 *3:1089 2.98279
255 *3:1085 *889:CK 1.4
256 *3:1083 *3:1087 1.4
257 *3:1082 *3:1086 0.124283
258 *3:1081 *3:1085 1.4
259 *3:1080 *904:CK 1.4
260 *3:1077 *3:1083 2.2371
261 *3:1075 *3:1082 1.4
262 *3:1074 *3:1081 0.248566
263 *3:1073 *3:1080 1.4
264 *3:1072 *769:CK 1.4
265 *3:1070 *741:CK 1.4
266 *3:1069 *3:1077 1.4
267 *3:1068 *742:CK 1.4
268 *3:1067 *3:1075 0.372851
269 *3:1067 *3:1074 1.4
270 *3:1066 *3:1073 0.124283
271 *3:1065 *3:1072 1.4
272 *3:1064 *786:CK 1.4
273 *3:1062 *3:1070 2.98278
274 *3:1062 *3:1069 0.124283
275 *3:1061 *3:1068 1.4
276 *3:1060 *3:1067 2.2371
277 *3:1060 *3:1066 1.4
278 *3:1059 *3:1065 0.248566
279 *3:1058 *3:1064 1.4
280 *3:1057 *771:CK 1.4
281 *3:1056 *3:1062 1.4
282 *3:1055 *3:1061 0.372849
283 *3:1054 *3:1060 2.2371
284 *3:1054 *3:1059 1.4
285 *3:1053 *3:1058 0.124283
286 *3:1052 *3:1057 1.4
287 *3:1051 *3:1056 1.36711
288 *3:1049 *3:1055 1.4
289 *3:1048 *3:1054 0.869985
290 *3:1048 *3:1053 1.4
291 *3:1047 *3:1052 0.124283
292 *3:1046 *3:1051 1.4
293 *3:1043 *861:CK 1.4
294 *3:1043 *3:1049 0.869979
295 *3:1042 *3:1048 2.23709
296 *3:1042 *3:1047 1.4
297 *3:1041 *3:1046 0.124283
298 *3:1041 *876:CK 1.4
299 *3:1040 *756:CK 1.4
300 *3:1039 *3:1043 2.60994
301 *3:1038 *3:1042 3.23135
302 *3:1037 *3:1041 0.994261
303 *3:1037 *3:1040 0.372848
304 *3:1036 *3:1039 1.4
305 *3:1034 *3:1038 1.4
306 *3:1033 *3:1037 1.4
307 *3:1033 *3:1036 0.248566
308 *3:1032 *891:CK 1.4
309 *3:1029 *3:1034 0.124283
310 *3:1029 *3:1033 3.10708
311 *3:1028 *3:1032 1.4
312 *3:1027 *906:CK 1.4
313 *3:1025 *787:CK 1.4
314 *3:1024 *3:1029 1.4
315 *3:1023 *3:1028 0.372849
316 *3:1022 *3:1027 1.4
317 *3:1021 *907:CK 1.4
318 *3:1021 *3:1025 0.869979
319 *3:1019 *3:1024 0.372848
320 *3:1019 *3:1023 1.4
321 *3:1018 *3:1022 0.248566
322 *3:1017 *3:1021 1.4
323 *3:1016 *892:CK 1.4
324 *3:1014 *3:1019 0.869979
325 *3:1014 *3:1018 1.4
326 *3:1013 *3:1017 0.248566
327 *3:1012 *3:1016 1.4
328 *3:1011 *772:CK 1.4
329 *3:1010 *3:1014 1.36711
330 *3:1010 *3:1013 1.4
331 *3:1009 *3:1012 0.248566
332 *3:1008 *3:1011 1.4
333 *3:1007 *3:1010 2.23709
334 *3:1007 *3:1009 1.4
335 *3:1006 *3:1008 0.248567
336 *3:1004 *3:1007 3.10715
337 *3:1004 *3:1006 1.4
338 *3:1003 *757:CK 1.4
339 *3:1002 *3:1004 0.124288
340 *3:1001 *3:1003 0.994301
341 *3:1000 *3:1002 1.4
342 *3:999 *3:1001 1.4
343 *3:998 *3:1000 2.98281
344 *3:998 *3:999 0.372851
345 *3:997 *3:998 1.4
346 *3:995 *3:997 1.24288
347 *3:995 *877:CK 1.4
348 *3:994 *3:995 0.870014
349 *3:992 *3:994 1.4
350 *3:991 *727:CK 1.4
351 *3:990 *3:992 2.36139
352 *3:990 *3:991 1.4
353 *3:986 *3:990 0.372851
354 *3:985 *1250:CK 1.4
355 *3:984 *1222:CK 1.4
356 *3:983 *802:CK 1.4
357 *3:982 *3:986 1.4
358 *3:981 *3:985 2.2372
359 *3:980 *3:984 1.4
360 *3:979 *3:983 1.4
361 *3:978 *3:982 1.36716
362 *3:977 *3:981 1.4
363 *3:977 *3:980 1.24283
364 *3:975 *3:979 0.248567
365 *3:975 *3:978 1.4
366 *3:974 *3:977 0.248566
367 *3:972 *803:CK 1.4
368 *3:971 *3:975 3.23139
369 *3:969 *3:974 1.4
370 *3:967 *817:CK 1.4
371 *3:966 *3:972 2.11281
372 *3:965 *3:971 1.4
373 *3:965 *728:CK 1.4
374 *3:964 *3:969 1.36718
375 *3:964 *847:CK 1.4
376 *3:962 *3:967 1.4
377 *3:961 *3:966 1.4
378 *3:960 *3:965 0.124283
379 *3:959 *3:964 2.23714
380 *3:959 *818:CK 1.4
381 *3:958 *3:962 0.497155
382 *3:957 *3:961 0.124289
383 *3:957 *3:960 1.4
384 *3:956 *3:959 2.2371
385 *3:956 *3:958 1.4
386 *3:955 *3:957 1.24289
387 *3:954 *3:956 0.869982
388 *3:953 *3:955 1.4
389 *3:952 *3:954 1.4
390 *3:951 *3:953 1.4914
391 *3:949 *3:952 0.124289
392 *3:949 *3:951 1.4
393 *3:948 *862:CK 1.4
394 *3:947 *3:949 2.48577
395 *3:947 *3:948 1.4
396 *3:946 *3:947 0.124289
397 *3:945 *3:946 1.4
398 *3:943 *3:945 1.36711
399 *3:943 *832:CK 1.4
400 *3:942 *3:943 0.869982
401 *3:938 *3:942 1.4
402 *3:937 *833:CK 1.4
403 *3:936 *758:CK 1.4
404 *3:934 *773:CK 1.4
405 *3:933 *3:938 2.11291
406 *3:933 *3:937 1.4
407 *3:932 *3:936 0.869982
408 *3:931 *788:CK 1.4
409 *3:931 *3:934 1.36712
410 *3:930 *3:933 4.4744
411 *3:930 *3:932 1.4
412 *3:929 *3:931 1.4
413 *3:928 *3:930 0.248578
414 *3:928 *3:929 0.621423
415 *3:926 *3:928 1.4
416 *3:925 *848:CK 1.4
417 *3:924 *3:926 2.2371
418 *3:922 *3:925 1.4
419 *3:921 *3:924 1.4
420 *3:920 *836:CK 1.4
421 *3:919 *3:922 0.372866
422 *3:919 *3:921 0.248578
423 *3:918 *3:920 0.124288
424 *3:917 *3:919 1.4
425 *3:915 *3:918 1.4
426 *3:914 *3:917 0.869982
427 *3:912 *1226:CK 1.4
428 *3:911 *3:915 1.11855
429 *3:909 *3:914 1.4
430 *3:908 *863:CK 1.4
431 *3:907 *3:912 1.4
432 *3:906 *3:911 1.4
433 *3:905 *821:CK 1.4
434 *3:904 *3:909 0.124289
435 *3:904 *3:908 1.4
436 *3:903 *3:907 0.124289
437 *3:902 *3:906 0.745728
438 *3:900 *3:905 1.36717
439 *3:899 *3:904 2.73424
440 *3:898 *3:903 1.4
441 *3:897 *3:902 1.4
442 *3:896 *731:CK 1.4
443 *3:895 *3:900 1.4
444 *3:894 *3:899 1.4
445 *3:892 *3:898 2.23714
446 *3:890 *3:897 0.745699
447 *3:890 *3:896 1.4
448 *3:888 *3:895 1.24283
449 *3:887 *3:894 0.497134
450 *3:886 *864:CK 1.4
451 *3:884 *3:892 1.4
452 *3:883 *822:CK 1.4
453 *3:881 *3:890 0.497133
454 *3:880 *806:CK 1.4
455 *3:880 *3:888 1.4
456 *3:879 *3:887 1.4
457 *3:878 *3:886 0.869984
458 *3:877 *879:CK 1.4
459 *3:876 *3:884 1.86425
460 *3:876 *3:883 1.4
461 *3:875 *882:CK 1.4
462 *3:874 *3:881 1.4
463 *3:874 *3:880 2.23718
464 *3:873 *3:879 0.248566
465 *3:873 *3:878 1.4
466 *3:872 *3:877 0.497134
467 *3:871 *3:876 0.621416
468 *3:870 *3:875 1.4
469 *3:869 *3:874 0.124288
470 *3:868 *3:873 0.497132
471 *3:868 *3:872 1.4
472 *3:867 *3:871 1.4
473 *3:866 *3:870 0.124283
474 *3:865 *3:869 1.4
475 *3:864 *3:868 0.372849
476 *3:863 *3:867 2.23718
477 *3:863 *3:866 1.4
478 *3:862 *3:865 1.24283
479 *3:861 *3:864 1.4
480 *3:859 *3:863 0.745728
481 *3:859 *3:862 1.4
482 *3:858 *3:861 2.73424
483 *3:858 *729:CK 1.4
484 *3:857 *3:859 0.124288
485 *3:855 *3:858 0.869984
486 *3:851 *3:857 1.4
487 *3:850 *732:CK 1.4
488 *3:849 *3:855 1.4
489 *3:848 *804:CK 1.4
490 *3:847 *774:CK 1.4
491 *3:845 *837:CK 1.4
492 *3:844 *3:851 1.86425
493 *3:844 *3:850 1.4
494 *3:843 *3:849 0.745697
495 *3:843 *3:848 1.4
496 *3:842 *3:847 1.4
497 *3:840 *762:CK 1.4
498 *3:839 *3:845 1.4
499 *3:838 *3:844 1.86425
500 *3:837 *3:843 0.124283
501 *3:834 *3:842 0.124283
502 *3:833 *777:CK 1.4
503 *3:832 *3:840 1.4
504 *3:831 *3:839 0.124283
505 *3:830 *3:838 1.4
506 *3:829 *3:837 1.4
507 *3:828 *819:CK 1.4
508 *3:827 *744:CK 1.4
509 *3:826 *3:834 1.4
510 *3:825 *3:833 1.4
511 *3:824 *3:832 0.124283
512 *3:823 *3:831 1.4
513 *3:823 *3:830 0.870016
514 *3:822 *3:829 0.37285
515 *3:822 *3:828 0.994267
516 *3:821 *3:827 0.37285
517 *3:821 *3:826 0.994267
518 *3:818 *3:825 3.6042
519 *3:814 *3:824 1.4
520 *3:814 *3:823 2.23718
521 *3:812 *3:822 1.4
522 *3:811 *3:821 1.4
523 *3:810 *746:CK 1.4
524 *3:809 *776:CK 1.4
525 *3:809 *3:818 1.4
526 *3:808 *851:CK 1.4
527 *3:807 *1254:CK 1.4
528 *3:805 *807:CK 1.4
529 *3:804 *3:814 1.36717
530 *3:803 *1245:CK 1.4
531 *3:801 *3:812 3.47992
532 *3:801 *3:811 0.248566
533 *3:800 *3:810 1.4
534 *3:799 *3:809 1.36718
535 *3:798 *3:808 1.4
536 *3:796 *3:807 2.2372
537 *3:795 *867:CK 1.4
538 *3:794 *3:805 1.4
539 *3:793 *3:804 1.4
540 *3:792 *3:803 1.4
541 *3:790 *759:CK 1.4
542 *3:789 *3:801 1.4
543 *3:788 *3:800 0.994263
544 *3:788 *3:799 1.4
545 *3:787 *3:798 0.248566
546 *3:785 *1240:CK 1.4
547 *3:784 *3:796 1.4
548 *3:782 *3:795 1.4
549 *3:781 *3:794 0.99431
550 *3:781 *3:793 0.124289
551 *3:780 *3:792 0.497155
552 *3:779 *1252:CK 1.4
553 *3:778 *3:790 1.4
554 *3:777 *3:789 2.60995
555 *3:775 *3:788 0.124283
556 *3:774 *3:787 1.4
557 *3:773 *761:CK 1.4
558 *3:772 *3:785 1.4
559 *3:772 *3:784 2.11281
560 *3:771 *866:CK 1.4
561 *3:770 *3:782 0.497155
562 *3:769 *3:781 1.4
563 *3:768 *3:780 1.4
564 *3:766 *3:779 1.4
565 *3:765 *3:778 1.24283
566 *3:765 *3:777 1.4
567 *3:764 *834:CK 1.4
568 *3:763 *3:775 1.4
569 *3:761 *3:774 1.36718
570 *3:760 *3:773 1.4
571 *3:759 *3:772 0.86998
572 *3:758 *3:771 1.4
573 *3:757 *3:770 1.4
574 *3:757 *3:769 0.869979
575 *3:756 *3:768 1.36718
576 *3:756 *763:CK 1.4
577 *3:755 *3:766 0.124289
578 *3:754 *3:765 0.248566
579 *3:753 *3:764 1.4
580 *3:752 *3:763 0.870021
581 *3:751 *747:CK 1.4
582 *3:750 *3:761 1.4
583 *3:750 *3:760 0.248566
584 *3:749 *3:759 1.4
585 *3:748 *3:758 0.124283
586 *3:747 *3:757 3.6042
587 *3:745 *3:756 1.4
588 *3:744 *3:755 1.4
589 *3:742 *3:754 1.4
590 *3:741 *3:753 0.124283
591 *3:741 *3:752 1.4
592 *3:740 *3:751 1.4
593 *3:740 *3:750 3.35564
594 *3:739 *3:749 2.2372
595 *3:739 *3:748 1.4
596 *3:735 *3:747 1.4
597 *3:734 *1255:CK 1.4
598 *3:733 *3:745 1.1186
599 *3:732 *3:744 2.2372
600 *3:730 *909:CK 1.4
601 *3:730 *3:742 3.10709
602 *3:729 *3:741 0.372849
603 *3:729 *3:740 1.98853
604 *3:727 *3:739 1.36718
605 *3:726 *849:CK 1.4
606 *3:725 *854:CK 1.4
607 *3:724 *1241:CK 1.4
608 *3:723 *3:735 0.621444
609 *3:723 *3:734 1.4
610 *3:721 *3:733 1.4
611 *3:720 *3:732 1.4
612 *3:719 *743:CK 1.4
613 *3:718 *3:730 1.36712
614 *3:717 *3:729 1.4
615 *3:716 *881:CK 1.4
616 *3:715 *3:727 1.4
617 *3:714 *3:726 0.248578
618 *3:713 *3:725 1.4
619 *3:712 *3:724 1.4
620 *3:711 *3:723 0.497155
621 *3:710 *748:CK 1.4
622 *3:707 *3:721 0.870021
623 *3:706 *3:720 0.870021
624 *3:706 *3:719 1.4
625 *3:705 *3:718 1.4
626 *3:704 *3:717 2.2372
627 *3:703 *3:716 1.4
628 *3:703 *3:715 1.61568
629 *3:702 *3:714 1.4
630 *3:701 *3:713 0.248578
631 *3:700 *3:712 0.124289
632 *3:699 *3:711 1.4
633 *3:698 *3:710 1.4
634 *3:697 *869:CK 1.4
635 *3:696 *764:CK 1.4
636 *3:695 *3:707 1.4
637 *3:694 *3:706 2.85864
638 *3:694 *3:705 0.248577
639 *3:693 *3:704 1.4
640 *3:693 *3:703 3.23136
641 *3:692 *3:702 0.621414
642 *3:691 *3:701 1.4
643 *3:689 *3:700 1.4
644 *3:689 *3:699 0.869979
645 *3:688 *3:698 0.248578
646 *3:686 *3:697 1.36718
647 *3:685 *3:696 1.4
648 *3:685 *3:695 0.745732
649 *3:683 *3:694 1.4
650 *3:681 *3:693 0.124283
651 *3:679 *3:692 1.4
652 *3:678 *3:691 3.10711
653 *3:678 *839:CK 1.4
654 *3:677 *3:689 0.372848
655 *3:676 *3:688 1.4
656 *3:675 *749:CK 1.4
657 *3:674 *3:686 1.4
658 *3:674 *3:685 0.124289
659 *3:673 *789:CK 1.4
660 *3:672 *3:683 0.99431
661 *3:671 *1238:CK 1.4
662 *3:670 *3:681 1.4
663 *3:670 *791:CK 1.4
664 *3:670 *3:679 0.248578
665 *3:669 *3:678 3.23135
666 *3:668 *3:677 1.4
667 *3:667 *3:676 0.870021
668 *3:666 *3:675 1.4
669 *3:666 *3:674 0.621444
670 *3:665 *3:673 1.4
671 *3:664 *3:672 1.4
672 *3:663 *3:671 0.124289
673 *3:661 *3:670 3.60437
674 *3:660 *3:669 1.4
675 *3:660 *3:668 0.124289
676 *3:658 *3:667 1.4
677 *3:658 *3:666 0.745732
678 *3:657 *3:665 0.497155
679 *3:656 *3:664 0.621444
680 *3:656 *3:663 1.4
681 *3:655 *911:CK 1.4
682 *3:654 *3:661 1.4
683 *3:653 *3:660 3.23151
684 *3:652 *852:CK 1.4
685 *3:651 *3:658 0.870021
686 *3:650 *3:657 1.4
687 *3:649 *3:656 0.497155
688 *3:648 *3:655 1.4
689 *3:648 *3:654 0.248566
690 *3:645 *3:653 1.4
691 *3:645 *3:652 0.372848
692 *3:643 *3:651 1.4
693 *3:640 *3:650 1.24289
694 *3:640 *3:649 1.4
695 *3:639 *3:648 0.248566
696 *3:638 *901:CK 1.4
697 *3:636 *1227:CK 1.4
698 *3:636 *3:645 0.994261
699 *3:635 *734:CK 1.4
700 *3:633 *3:643 1.36718
701 *3:632 *779:CK 1.4
702 *3:631 *824:CK 1.4
703 *3:630 *3:640 0.124289
704 *3:627 *3:639 1.4
705 *3:626 *3:638 1.4
706 *3:625 *735:CK 1.4
707 *3:623 *3:636 0.869979
708 *3:622 *3:635 0.124283
709 *3:621 *884:CK 1.4
710 *3:620 *3:633 1.4
711 *3:618 *3:632 3.23151
712 *3:617 *3:631 0.124289
713 *3:615 *3:630 1.4
714 *3:614 *894:CK 1.4
715 *3:613 *896:CK 1.4
716 *3:613 *3:627 0.870021
717 *3:611 *3:626 0.372866
718 *3:610 *3:625 1.4
719 *3:609 *1243:CK 1.4
720 *3:608 *3:623 1.4
721 *3:607 *3:622 1.4
722 *3:606 *3:621 1.4
723 *3:606 *3:620 0.99431
724 *3:605 *808:CK 1.4
725 *3:604 *3:618 1.4
726 *3:603 *3:617 1.4
727 *3:602 *792:CK 1.4
728 *3:601 *3:615 0.372866
729 *3:601 *3:614 1.4
730 *3:600 *3:613 1.4
731 *3:599 *1223:CK 1.4
732 *3:597 *3:611 1.4
733 *3:596 *3:610 0.124289
734 *3:595 *3:609 1.4
735 *3:595 *3:608 0.870021
736 *3:594 *3:607 1.36718
737 *3:593 *3:606 0.372866
738 *3:592 *3:605 1.4
739 *3:591 *3:604 0.124283
740 *3:591 *3:603 2.36137
741 *3:590 *3:602 1.4
742 *3:589 *3:601 3.35572
743 *3:589 *3:600 0.124283
744 *3:588 *3:599 1.4
745 *3:587 *878:CK 1.4
746 *3:586 *3:597 2.2372
747 *3:586 *3:596 1.4
748 *3:585 *3:595 2.36149
749 *3:584 *3:594 1.4
750 *3:583 *3:593 1.4
751 *3:581 *3:592 0.124283
752 *3:580 *3:591 1.4
753 *3:579 *3:590 0.497131
754 *3:578 *3:589 1.4
755 *3:577 *3:588 0.497132
756 *3:576 *3:587 1.4
757 *3:575 *3:586 1.61575
758 *3:572 *3:585 1.4
759 *3:572 *3:584 0.124283
760 *3:571 *3:583 2.2372
761 *3:571 *1257:CK 1.4
762 *3:570 *3:581 1.4
763 *3:570 *3:580 1.24289
764 *3:568 *3:579 1.4
765 *3:568 *3:578 1.36718
766 *3:566 *3:577 1.4
767 *3:565 *3:576 0.124289
768 *3:564 *3:575 1.4
769 *3:563 *1244:CK 1.4
770 *3:562 *809:CK 1.4
771 *3:562 *3:572 1.36711
772 *3:561 *3:571 2.23713
773 *3:560 *3:570 0.745732
774 *3:559 *793:CK 1.4
775 *3:558 *3:568 0.621444
776 *3:557 *912:CK 1.4
777 *3:556 *3:566 1.11859
778 *3:555 *3:565 1.4
779 *3:554 *3:564 1.86433
780 *3:553 *3:563 1.4
781 *3:551 *3:562 0.869979
782 *3:550 *3:561 1.4
783 *3:549 *3:560 1.4
784 *3:548 *3:559 0.124289
785 *3:547 *3:558 1.4
786 *3:546 *3:557 0.248577
787 *3:545 *3:556 1.4
788 *3:544 *3:555 1.11855
789 *3:543 *3:554 1.4
790 *3:542 *3:553 0.745732
791 *3:540 *1229:CK 1.4
792 *3:539 *3:551 1.4
793 *3:539 *3:550 0.372866
794 *3:538 *3:549 1.11855
795 *3:538 *3:548 1.4
796 *3:537 *3:547 0.372849
797 *3:537 *3:546 1.4
798 *3:536 *3:545 0.372866
799 *3:536 *3:544 1.4
800 *3:535 *3:543 0.62144
801 *3:535 *3:542 1.4
802 *3:532 *868:CK 1.4
803 *3:531 *3:540 1.4
804 *3:531 *3:539 0.870021
805 *3:530 *3:538 3.10707
806 *3:528 *3:537 0.745697
807 *3:527 *3:536 1.61575
808 *3:526 *3:535 2.23719
809 *3:526 *1258:CK 1.4
810 *3:524 *733:CK 1.4
811 *3:523 *3:532 1.4
812 *3:522 *3:531 3.23143
813 *3:521 *3:530 1.4
814 *3:519 *794:CK 1.4
815 *3:518 *3:528 1.4
816 *3:516 *3:527 1.4
817 *3:515 *3:526 0.497152
818 *3:514 *790:CK 1.4
819 *3:513 *3:524 1.4
820 *3:512 *3:523 0.124289
821 *3:511 *3:522 1.4
822 *3:511 *3:521 0.124289
823 *3:509 *897:CK 1.4
824 *3:508 *3:519 0.124289
825 *3:508 *3:518 2.36149
826 *3:507 *1237:CK 1.4
827 *3:507 *3:516 0.248569
828 *3:506 *3:515 1.4
829 *3:505 *3:514 0.248567
830 *3:503 *3:513 0.124289
831 *3:502 *3:512 1.4
832 *3:502 *3:511 1.36718
833 *3:501 *899:CK 1.4
834 *3:500 *3:509 0.745732
835 *3:499 *3:508 1.4
836 *3:498 *3:507 3.97724
837 *3:497 *3:506 0.621444
838 *3:496 *3:505 1.4
839 *3:494 *883:CK 1.4
840 *3:493 *3:503 1.4
841 *3:492 *3:502 0.870017
842 *3:491 *3:501 0.124289
843 *3:490 *3:500 1.4
844 *3:490 *3:499 1.24283
845 *3:489 *3:498 1.4
846 *3:488 *3:497 1.4
847 *3:487 *3:496 0.994272
848 *3:486 *1256:CK 1.4
849 *3:485 *3:494 0.124288
850 *3:483 *3:493 1.36717
851 *3:482 *3:492 1.4
852 *3:481 *3:491 1.4
853 *3:481 *3:490 2.23713
854 *3:480 *3:489 0.86998
855 *3:479 *3:488 0.62144
856 *3:479 *3:487 1.4
857 *3:478 *3:486 0.124288
858 *3:477 *3:485 1.4
859 *3:476 *853:CK 1.4
860 *3:475 *3:483 1.4
861 *3:475 *3:482 0.124289
862 *3:474 *3:481 0.745732
863 *3:472 *3:480 1.4
864 *3:471 *3:479 0.994305
865 *3:470 *3:478 1.4
866 *3:470 *3:477 3.72866
867 *3:469 *3:476 1.4
868 *3:469 *3:475 1.49146
869 *3:468 *3:474 1.4
870 *3:467 *1224:CK 1.4
871 *3:467 *3:472 0.497155
872 *3:465 *3:471 1.4
873 *3:465 *3:470 1.74004
874 *3:463 *3:469 3.72866
875 *3:461 *3:468 1.49146
876 *3:460 *3:467 2.48577
877 *3:459 *908:CK 1.4
878 *3:457 *3:465 0.372857
879 *3:456 *778:CK 1.4
880 *3:456 *3:463 1.4
881 *3:455 *820:CK 1.4
882 *3:454 *3:461 1.4
883 *3:453 *3:460 1.4
884 *3:452 *3:459 0.248578
885 *3:451 *1251:CK 1.4
886 *3:450 *3:457 1.4
887 *3:447 *3:456 1.36717
888 *3:446 *3:455 1.4
889 *3:446 *3:454 1.24289
890 *3:445 *3:453 0.372849
891 *3:445 *3:452 1.4
892 *3:444 *3:451 1.4
893 *3:443 *3:450 0.124284
894 *3:443 *775:CK 1.4
895 *3:442 *823:CK 1.4
896 *3:441 *3:447 1.4
897 *3:440 *3:446 0.99431
898 *3:439 *3:445 0.621417
899 *3:438 *3:444 0.124286
900 *3:437 *3:443 1.4914
901 *3:436 *3:442 1.4
902 *3:436 *3:441 0.870021
903 *3:434 *3:440 1.4
904 *3:433 *3:439 1.4
905 *3:431 *3:438 1.4
906 *3:429 *3:437 1.4
907 *3:428 *3:436 1.98862
908 *3:427 *805:CK 1.4
909 *3:427 *3:434 2.2372
910 *3:425 *3:433 0.248577
911 *3:425 *893:CK 1.4
912 *3:425 *3:431 1.36718
913 *3:424 *895:CK 1.4
914 *3:423 *3:429 0.497146
915 *3:421 *3:428 1.4
916 *3:420 *3:427 0.124289
917 *3:419 *914:CK 1.4
918 *3:418 *3:425 1.4
919 *3:417 *3:424 1.4
920 *3:416 *3:423 1.4
921 *3:414 *913:CK 1.4
922 *3:413 *3:421 0.745728
923 *3:412 *3:420 1.4
924 *3:411 *3:419 0.124289
925 *3:409 *3:418 3.48008
926 *3:409 *3:417 0.124289
927 *3:408 *3:416 0.745728
928 *3:408 *1239:CK 1.4
929 *3:407 *3:414 0.124288
930 *3:406 *3:413 1.4
931 *3:405 *3:412 3.3558
932 *3:405 *3:411 1.4
933 *3:404 *910:CK 1.4
934 *3:403 *3:409 1.4
935 *3:402 *3:408 0.124288
936 *3:401 *3:407 1.4
937 *3:401 *3:406 0.372866
938 *3:400 *3:405 0.621435
939 *3:399 *3:404 1.4
940 *3:398 *3:403 2.2372
941 *3:397 *3:402 1.4
942 *3:397 *3:401 0.621444
943 *3:394 *3:400 1.4
944 *3:393 *3:399 0.124289
945 *3:393 *3:398 1.4
946 *3:392 *3:397 0.372863
947 *3:391 *898:CK 1.4
948 *3:390 *838:CK 1.4
949 *3:390 *3:394 0.745732
950 *3:389 *3:393 1.1186
951 *3:388 *3:392 1.4
952 *3:387 *3:391 1.4
953 *3:386 *3:390 2.23719
954 *3:384 *3:389 1.4
955 *3:382 *3:388 2.11282
956 *3:381 *3:387 0.372866
957 *3:381 *3:386 1.4
958 *3:380 *880:CK 1.4
959 *3:380 *3:384 2.23719
960 *3:379 *730:CK 1.4
961 *3:378 *3:382 1.4
962 *3:378 *3:381 0.248575
963 *3:376 *3:380 0.869985
964 *3:375 *3:379 1.4
965 *3:375 *3:378 2.98279
966 *3:374 *835:CK 1.4
967 *3:373 *3:376 1.4
968 *3:373 *3:375 3.47992
969 *3:372 *3:374 1.4
970 *3:370 *3:373 0.124283
971 *3:369 *3:372 0.86998
972 *3:368 *850:CK 1.4
973 *3:368 *3:370 1.4
974 *3:367 *3:369 1.4
975 *3:367 *3:368 2.2371
976 *3:366 *3:367 0.497134
977 *3:364 *3:366 1.4
978 *3:363 *745:CK 1.4
979 *3:361 *3:364 0.621414
980 *3:360 *3:363 0.124284
981 *3:359 *760:CK 1.4
982 *3:358 *3:361 1.4
983 *3:357 *3:360 1.4
984 *3:356 *3:359 0.124284
985 *3:355 *3:358 0.994268
986 *3:354 *3:357 0.745697
987 *3:354 *3:356 1.4
988 *3:353 *3:355 1.4
989 *3:350 *3:354 0.745697
990 *3:350 *3:353 0.124283
991 *3:349 *858:CK 1.4
992 *3:347 *1225:CK 1.4
993 *3:346 *3:350 1.4
994 *3:345 *3:349 1.4
995 *3:344 *903:CK 1.4
996 *3:340 *3:347 1.4
997 *3:339 *3:346 2.11282
998 *3:338 *3:345 0.124283
999 *3:337 *3:344 1.4
1000 *3:336 *918:CK 1.4
1001 *3:335 *915:CK 1.4
1002 *3:334 *900:CK 1.4
1003 *3:333 *3:340 0.497131
1004 *3:333 *3:339 1.4
1005 *3:332 *3:338 1.4
1006 *3:331 *3:337 0.124283
1007 *3:330 *3:336 1.4
1008 *3:329 *3:335 1.4
1009 *3:328 *3:334 1.4
1010 *3:326 *3:333 0.248566
1011 *3:324 *3:332 1.36717
1012 *3:324 *3:331 1.4
1013 *3:323 *3:330 0.124283
1014 *3:322 *3:329 0.86998
1015 *3:321 *3:328 0.248566
1016 *3:320 *865:CK 1.4
1017 *3:320 *3:326 1.4
1018 *3:319 *783:CK 1.4
1019 *3:318 *3:324 2.23713
1020 *3:317 *3:323 1.4
1021 *3:316 *3:322 1.4
1022 *3:315 *3:321 1.4
1023 *3:315 *3:320 2.2371
1024 *3:313 *3:319 1.4
1025 *3:311 *3:318 1.4
1026 *3:310 *3:317 0.869979
1027 *3:308 *3:316 0.124284
1028 *3:308 *3:315 0.745701
1029 *3:307 *798:CK 1.4
1030 *3:306 *3:313 0.124286
1031 *3:304 *1230:CK 1.4
1032 *3:303 *3:311 0.621413
1033 *3:303 *3:310 1.4
1034 *3:302 *888:CK 1.4
1035 *3:301 *3:308 1.4
1036 *3:299 *3:307 0.87002
1037 *3:299 *3:306 1.4
1038 *3:298 *765:CK 1.4
1039 *3:298 *3:304 0.869984
1040 *3:297 *3:303 1.49139
1041 *3:297 *3:302 1.4
1042 *3:296 *3:301 1.36711
1043 *3:295 *1413:CK 1.4
1044 *3:293 *3:299 2.23719
1045 *3:291 *3:298 1.4
1046 *3:290 *3:297 1.49139
1047 *3:289 *3:296 1.4
1048 *3:288 *3:295 1.4
1049 *3:287 *813:CK 1.4
1050 *3:286 *3:293 1.4
1051 *3:285 *843:CK 1.4
1052 *3:284 *3:291 1.86433
1053 *3:281 *3:290 1.4
1054 *3:281 *3:289 0.124284
1055 *3:280 *3:288 3.3558
1056 *3:279 *3:287 0.248567
1057 *3:278 *3:286 0.994307
1058 *3:276 *3:285 1.4
1059 *3:274 *3:284 1.4
1060 *3:273 *753:CK 1.4
1061 *3:272 *768:CK 1.4
1062 *3:272 *3:281 2.2371
1063 *3:271 *3:280 1.4
1064 *3:269 *3:279 1.4
1065 *3:268 *3:278 1.4
1066 *3:268 *738:CK 1.4
1067 *3:267 *3:276 3.10712
1068 *3:266 *885:CK 1.4
1069 *3:265 *3:274 1.4914
1070 *3:264 *3:273 1.4
1071 *3:263 *3:272 1.36712
1072 *3:262 *3:271 0.870018
1073 *3:262 *1368:CK 1.4
1074 *3:261 *3:269 1.74004
1075 *3:260 *3:268 1.36712
1076 *3:260 *3:267 1.4
1077 *3:257 *3:266 0.124283
1078 *3:256 *3:265 1.4
1079 *3:255 *3:264 0.248577
1080 *3:255 *3:263 1.4
1081 *3:253 *3:262 6.09007
1082 *3:253 *3:261 1.4
1083 *3:252 *3:260 0.124283
1084 *3:251 *873:CK 1.4
1085 *3:250 *855:CK 1.4
1086 *3:249 *3:257 1.4
1087 *3:249 *3:256 0.621444
1088 *3:248 *3:255 2.48577
1089 *3:246 *1358:CK 1.4
1090 *3:245 *3:253 0.124283
1091 *3:244 *3:252 1.4
1092 *3:243 *3:251 0.124283
1093 *3:242 *3:250 1.4
1094 *3:241 *3:249 0.745732
1095 *3:240 *3:248 1.4
1096 *3:239 *1367:CK 1.4
1097 *3:237 *3:246 1.36718
1098 *3:236 *3:245 1.4
1099 *3:235 *3:244 2.98293
1100 *3:235 *3:243 1.4
1101 *3:234 *3:242 0.124289
1102 *3:233 *3:241 1.4
1103 *3:233 *3:240 0.124283
1104 *3:232 *3:239 1.36718
1105 *3:231 *1359:CK 1.4
1106 *3:230 *3:237 1.4
1107 *3:229 *3:236 1.1186
1108 *3:227 *3:235 0.745732
1109 *3:226 *3:234 1.4
1110 *3:226 *3:233 2.11282
1111 *3:225 *3:232 1.4
1112 *3:224 *3:231 1.4
1113 *3:224 *3:230 3.60422
1114 *3:223 *3:229 1.4
1115 *3:220 *870:CK 1.4
1116 *3:219 *3:227 1.4
1117 *3:219 *3:226 0.745701
1118 *3:218 *3:225 0.994267
1119 *3:218 *3:224 2.73424
1120 *3:217 *3:223 0.497134
1121 *3:217 *828:CK 1.4
1122 *3:216 *795:CK 1.4
1123 *3:214 *3:220 1.4
1124 *3:213 *3:219 0.124283
1125 *3:212 *3:218 1.4
1126 *3:210 *3:217 1.4
1127 *3:209 *3:216 0.869984
1128 *3:207 *840:CK 1.4
1129 *3:206 *3:214 0.124289
1130 *3:206 *3:213 1.4
1131 *3:205 *3:212 4.4744
1132 *3:205 *1370:CK 1.4
1133 *3:204 *3:210 0.745732
1134 *3:204 *3:209 1.4
1135 *3:203 *780:CK 1.4
1136 *3:202 *3:207 1.4
1137 *3:201 *3:206 3.48008
1138 *3:199 *3:205 2.73435
1139 *3:198 *3:204 0.124289
1140 *3:198 *3:203 1.4
1141 *3:197 *3:202 0.124289
1142 *3:196 *3:201 1.4
1143 *3:196 *750:CK 1.4
1144 *3:195 *3:199 1.4
1145 *3:194 *3:198 0.870021
1146 *3:193 *3:197 1.4
1147 *3:193 *3:196 1.36712
1148 *3:192 *3:195 2.11284
1149 *3:191 *3:194 1.4
1150 *3:191 *3:193 2.2371
1151 *3:190 *3:192 1.4
1152 *3:188 *3:191 0.124283
1153 *3:187 *3:190 0.372865
1154 *3:187 *810:CK 1.4
1155 *3:186 *3:188 1.4
1156 *3:185 *3:187 2.11282
1157 *3:184 *3:186 2.61006
1158 *3:184 *3:185 1.4
1159 *3:181 *3:184 0.124289
1160 *3:180 *737:CK 1.4
1161 *3:179 *736:CK 1.4
1162 *3:178 *3:181 1.4
1163 *3:176 *3:180 1.4
1164 *3:175 *3:179 1.36718
1165 *3:174 *3:178 0.124283
1166 *3:174 *825:CK 1.4
1167 *3:172 *3:176 1.49146
1168 *3:172 *3:175 1.4
1169 *3:171 *3:174 1.4
1170 *3:170 *796:CK 1.4
1171 *3:169 *3:172 0.124289
1172 *3:166 *3:171 3.48009
1173 *3:166 *3:170 1.4
1174 *3:165 *3:169 1.4
1175 *3:164 *826:CK 1.4
1176 *3:163 *797:CK 1.4
1177 *3:162 *3:166 2.98293
1178 *3:161 *3:165 0.870021
1179 *3:160 *3:164 1.4
1180 *3:159 *3:163 0.248578
1181 *3:158 *3:162 1.4
1182 *3:157 *3:161 1.4
1183 *3:157 *3:160 0.124289
1184 *3:156 *3:159 1.4
1185 *3:155 *3:158 0.621444
1186 *3:154 *3:157 1.36718
1187 *3:153 *3:156 0.248578
1188 *3:153 *3:155 1.4
1189 *3:151 *3:154 1.4
1190 *3:149 *3:153 0.621444
1191 *3:148 *781:CK 1.4
1192 *3:148 *3:151 1.36718
1193 *3:147 *782:CK 1.4
1194 *3:146 *3:149 1.4
1195 *3:146 *3:148 0.621444
1196 *3:144 *3:147 0.124289
1197 *3:144 *3:146 0.124289
1198 *3:143 *812:CK 1.4
1199 *3:140 *3:144 1.4
1200 *3:139 *3:143 0.124289
1201 *3:138 *841:CK 1.4
1202 *3:137 *872:CK 1.4
1203 *3:136 *3:140 3.97724
1204 *3:136 *3:139 1.4
1205 *3:135 *3:138 1.4
1206 *3:134 *3:137 1.4
1207 *3:133 *3:136 0.994285
1208 *3:132 *3:135 0.248566
1209 *3:131 *3:134 0.372849
1210 *3:129 *3:133 1.4
1211 *3:128 *3:132 1.4
1212 *3:127 *3:131 1.4
1213 *3:126 *871:CK 1.4
1214 *3:125 *3:129 0.745699
1215 *3:123 *3:128 0.124283
1216 *3:123 *3:127 2.9828
1217 *3:122 *3:126 0.248566
1218 *3:121 *3:125 1.4
1219 *3:120 *827:CK 1.4
1220 *3:117 *3:123 1.4
1221 *3:116 *3:122 1.4
1222 *3:115 *3:121 1.61568
1223 *3:115 *3:120 1.4
1224 *3:114 *842:CK 1.4
1225 *3:113 *811:CK 1.4
1226 *3:112 *3:117 3.35564
1227 *3:111 *3:116 0.994265
1228 *3:110 *3:115 0.497132
1229 *3:109 *3:114 1.4
1230 *3:108 *3:113 0.124283
1231 *3:108 *3:112 1.4
1232 *3:107 *3:111 1.4
1233 *3:106 *3:110 1.4
1234 *3:105 *3:109 0.124283
1235 *3:103 *3:108 2.11281
1236 *3:103 *3:107 0.248566
1237 *3:102 *3:106 2.2371
1238 *3:102 *3:105 1.4
1239 *3:101 *857:CK 1.4
1240 *3:100 *3:103 1.4
1241 *3:99 *3:102 1.36711
1242 *3:98 *3:101 1.4
1243 *3:98 *3:100 2.48566
1244 *3:97 *3:99 1.4
1245 *3:97 *3:98 0.248566
1246 *3:95 *3:97 0.869982
1247 *3:94 *752:CK 1.4
1248 *3:93 *3:95 1.4
1249 *3:92 *3:94 0.870021
1250 *3:90 *3:93 0.869982
1251 *3:88 *3:92 1.4
1252 *3:87 *751:CK 1.4
1253 *3:86 *3:90 1.4
1254 *3:85 *766:CK 1.4
1255 *3:84 *3:88 0.124289
1256 *3:82 *3:87 1.4
1257 *3:82 *3:86 1.4914
1258 *3:81 *3:85 1.4
1259 *3:80 *3:84 1.4
1260 *3:80 *886:CK 1.4
1261 *3:79 *3:82 0.248566
1262 *3:78 *3:81 0.124283
1263 *3:77 *3:80 0.124289
1264 *3:76 *3:79 1.4
1265 *3:74 *3:78 1.4
1266 *3:73 *3:77 1.4
1267 *3:72 *3:76 3.72849
1268 *3:71 *856:CK 1.4
1269 *3:69 *3:74 1.36717
1270 *3:68 *3:73 0.372863
1271 *3:68 *3:72 1.4
1272 *3:67 *3:71 0.248566
1273 *3:65 *1246:CK 1.4
1274 *3:64 *3:69 1.4
1275 *3:63 *3:68 2.36138
1276 *3:62 *3:67 1.4
1277 *3:61 *1259:CK 1.4
1278 *3:60 *3:65 1.4
1279 *3:60 *3:64 0.124289
1280 *3:59 *3:63 1.4
1281 *3:58 *3:62 0.869982
1282 *3:57 *3:61 1.4
1283 *3:57 *3:60 3.60437
1284 *3:56 *3:59 0.124283
1285 *3:56 *3:58 1.4
1286 *3:55 *3:57 0.372866
1287 *3:54 *3:56 1.98859
1288 *3:54 *3:55 1.4
1289 *3:53 *3:54 0.372866
1290 *3:52 *3:53 1.4
1291 *3:51 *3:52 1.36718
1292 *3:49 *3:51 1.4
1293 *3:47 *1228:CK 1.4
1294 *3:46 *3:49 0.497155
1295 *3:46 *1260:CK 1.4
1296 *3:45 *3:47 1.4
1297 *3:44 *3:46 1.4
1298 *3:43 *3:45 0.372866
1299 *3:41 *3:44 3.72866
1300 *3:40 *3:43 1.4
1301 *3:38 *1231:CK 1.4
1302 *3:38 *3:41 1.4
1303 *3:37 *3:40 0.745728
1304 *3:36 *1242:CK 1.4
1305 *3:35 *3:38 1.49146
1306 *3:34 *3:37 1.4
1307 *3:33 *3:36 0.124288
1308 *3:32 *3:35 1.4
1309 *3:32 *3:34 0.870021
1310 *3:29 *3:33 1.4
1311 *3:29 *3:32 0.497155
1312 *3:28 *902:CK 1.4
1313 *3:27 *916:CK 1.4
1314 *3:26 *3:29 1.49146
1315 *3:25 *3:28 1.4
1316 *3:24 *3:27 1.4
1317 *3:22 *3:26 1.4
1318 *3:21 *3:25 0.248578
1319 *3:20 *3:24 0.124289
1320 *3:19 *917:CK 1.4
1321 *3:19 *3:22 1.49146
1322 *3:18 *3:21 1.4
1323 *3:17 *3:20 1.4
1324 *3:17 *3:19 0.870017
1325 *3:15 *3:18 0.124289
1326 *3:15 *3:17 2.1129
1327 *3:14 *1232:CK 1.4
1328 *3:12 *3:15 1.4
1329 *3:11 *3:14 0.745732
1330 *3:10 *767:CK 1.4
1331 *3:9 *3:12 0.497155
1332 *3:9 *3:11 1.4
1333 *3:8 *3:10 0.124289
1334 *3:7 *3:9 0.124289
1335 *3:7 *3:8 1.4
1336 *3:6 *3:7 1.49146
1337 *3:5 *3:6 1.4
1338 *3:4 *3:5 1.49146
1339 *3:3 *3:4 1.4
1340 *3:2 *3:3 0.372866
1341 *3:1 *3:2 1.4
1342 *887:CK *3:1 1.4
*END

*D_NET *4 0.0167679

*CONN
*I *1360:B0 I *C 67.135 5.655 *L 0.00175 *D AO21X1
*I *1380:B I *C 67.135 10.585 *L 0.00272 *D NOR3BX1
*I *1377:AN I *C 67.135 18.415 *L 0.0018 *D NAND4BXL
*I *1363:A I *C 64.235 10.875 *L 0.00162 *D NOR2XL
*I *1361:A0 I *C 65.105 7.685 *L 0.00268 *D OAI31X1
*I *1430:AN I *C 60.755 21.315 *L 0.00178 *D NAND2BX1
*I *1427:A I *C 57.855 21.315 *L 0.00162 *D NOR2XL
*I *952:A I *C 43.935 28.565 *L 0.00162 *D NOR2XL
*I *1337:A I *C 40.745 31.755 *L 0.00273 *D CLKINVX1
*I *1194:A I *C 40.455 33.785 *L 0.00162 *D NOR2XL
*I *1341:AN I *C 37.265 31.755 *L 0.00178 *D NAND2BX1
*I *1339:AN I *C 26.825 31.755 *L 0.00178 *D NAND2BX1
*I *1393:B I *C 29.145 26.535 *L 0.0028 *D NOR2BX1
*I *1392:A I *C 26.535 26.535 *L 0.00162 *D NOR2XL
*P *4 I *C 26.215 0 *L 0

*CAP
1 *4:2 2.07733e-05
2 *4:3 2.07733e-05
3 *4:4 0.000322204
4 *4:5 0.000322204
5 *4:6 2.07733e-05
6 *4:7 0.000207733
7 *4:8 2.01377e-05
8 *4:9 0.00018696
9 *4:10 0.000563856
10 *4:11 0.000221515
11 *4:12 0.000765233
12 *4:14 4.02754e-05
13 *4:15 0.00018124
14 *4:16 0.000221515
15 *4:18 2.07733e-05
16 *4:19 4.15467e-05
17 *4:20 0.000457013
18 *4:21 2.07733e-05
19 *4:22 4.15467e-05
20 *4:23 0.000664747
21 *4:26 2.01377e-05
22 *4:27 0.00024928
23 *4:30 2.01377e-05
24 *4:31 2.01377e-05
25 *4:32 4.15467e-05
26 *4:34 2.01377e-05
27 *4:35 0.000474201
28 *4:37 0.000474201
29 *4:38 0.00117686
30 *4:39 0.00127773
31 *4:40 2.50744e-05
32 *4:41 0.000100863
33 *4:42 2.50744e-05
34 *4:43 0.000325967
35 *4:45 0.000325967
36 *4:46 0.000176509
37 *4:47 0.000201725
38 *4:48 2.50744e-05
39 *4:49 2.52156e-05
40 *4:50 2.50744e-05
41 *4:51 0.00017552
42 *4:53 0.000150446
43 *4:54 2.50744e-05
44 *4:56 0.000277372
45 *4:57 0.00118513
46 *4:59 0.000907762
47 *4:61 0.000451338
48 *4:63 0.000451338
49 *4:64 0.000226941
50 *4:65 0.000201725
51 *4:66 2.52156e-05
52 *4:68 0.00162019
53 *4:71 0.00162019
54 *4:72 1.78919e-05
55 *4:73 1.78919e-05
56 *4:74 8.84123e-06
57 *4:75 1.06705e-05
58 *4 1.82922e-06

*RES
1 *4:75 *4 0.0128569
2 *4:74 *4:75 0.0621418
3 *4:73 *4:74 1.4
4 *4:72 *4:73 0.124289
5 *4:71 *4:72 1.4
6 *4:68 *4:71 11.3098
7 *4:68 *1392:A 1.4
8 *4:67 *1393:B 1.4
9 *4:66 *4:68 1.4
10 *4:65 *4:67 1.4
11 *4:64 *4:66 0.124283
12 *4:64 *4:65 0.994263
13 *4:63 *4:64 1.4
14 *4:61 *4:63 2.23719
15 *4:61 *1339:AN 1.4
16 *4:59 *4:61 1.4
17 *4:58 *1341:AN 1.4
18 *4:57 *4:59 4.47418
19 *4:57 *4:58 1.4
20 *4:56 *4:57 1.36711
21 *4:54 *4:56 1.4
22 *4:53 *1194:A 1.4
23 *4:51 *4:54 0.124289
24 *4:51 *4:53 0.745731
25 *4:50 *1337:A 1.4
26 *4:49 *4:51 1.4
27 *4:48 *4:50 0.124289
28 *4:47 *4:49 0.124283
29 *4:47 *4:48 1.4
30 *4:46 *4:47 0.86998
31 *4:45 *4:46 1.4
32 *4:43 *4:45 1.61575
33 *4:42 *952:A 1.4
34 *4:41 *4:43 1.4
35 *4:40 *4:42 0.124289
36 *4:39 *4:41 0.497132
37 *4:39 *4:40 1.4
38 *4:38 *4:39 5.71712
39 *4:37 *4:38 1.4
40 *4:35 *4:37 2.85859
41 *4:34 *1427:A 1.4
42 *4:32 *4:35 1.4
43 *4:31 *4:34 0.124288
44 *4:30 *1430:AN 1.4
45 *4:27 *4:32 0.248578
46 *4:27 *4:31 1.4
47 *4:26 *4:30 0.124288
48 *4:25 *1361:A0 1.4
49 *4:24 *1363:A 1.4
50 *4:23 *4:27 1.24289
51 *4:23 *4:26 1.4
52 *4:22 *4:25 1.4
53 *4:21 *4:24 1.4
54 *4:20 *4:23 2.73435
55 *4:19 *4:22 0.248578
56 *4:18 *4:21 0.124289
57 *4:16 *4:20 1.4
58 *4:15 *4:19 1.4
59 *4:14 *4:18 1.4
60 *4:12 *1377:AN 1.4
61 *4:12 *4:16 1.36717
62 *4:11 *4:15 1.11859
63 *4:11 *4:14 0.248577
64 *4:10 *1380:B 1.4
65 *4:10 *4:12 3.35578
66 *4:9 *4:11 1.4
67 *4:8 *4:10 0.124288
68 *4:7 *4:9 1.1186
69 *4:7 *4:8 1.4
70 *4:6 *4:7 0.124289
71 *4:5 *4:6 1.4
72 *4:4 *4:5 1.98861
73 *4:3 *4:4 1.4
74 *4:2 *4:3 0.124289
75 *4:1 *4:2 1.4
76 *1360:B0 *4:1 1.4
*END

*D_NET *5 0.00365886

*CONN
*I *1395:A I *C 21.905 10.6475 *L 0.00163 *D INVXL
*P *5 I *C 0 0 *L 0

*CAP
1 *5:1 5.55073e-07
2 *5:2 0.000503173
3 *5:3 0.000502618
4 *5:4 0.00122938
5 *5:5 0.00122938
6 *5:6 8.04856e-05
7 *5:7 8.04856e-05
8 *5:8 8.19586e-06
9 *5:9 1.63917e-05
10 *5 8.19586e-06

*RES
1 *5:9 *5 0.0621444
2 *5:8 *5:9 0.0621444
3 *5:7 *5:8 1.4
4 *5:6 *5:7 0.621444
5 *5:5 *5:6 1.4
6 *5:4 *5:5 9.32166
7 *5:3 *5:4 1.4
8 *5:2 *5:3 3.88081
9 *5:1 *5:2 0.00428582
10 *1395:A *5:1 1.4
*END

*D_NET *6 0.00646772

*CONN
*I *1415:B0 I *C 42.195 18.415 *L 0.00274 *D OAI221X1
*I *1420:B0 I *C 46.545 21.315 *L 0.00265 *D AOI22X1
*P *6 I *C 0 25.635 *L 0

*CAP
1 *6:2 3.57838e-05
2 *6:3 3.57838e-05
3 *6:4 0.000194507
4 *6:5 0.000194507
5 *6:6 0.000250487
6 *6:7 0.000232595
7 *6:8 1.78919e-05
8 *6:9 1.76825e-05
9 *6:10 0.000247555
10 *6:11 1.76825e-05
11 *6:12 0.000247555
12 *6:14 0.00248615
13 *6:15 0.00248784
14 *6 1.69569e-06

*RES
1 *6:15 *6 0.0128575
2 *6:14 *6:15 18.2083
3 *6:12 *6:14 1.4
4 *6:11 *1420:B0 1.4
5 *6:10 *6:12 1.73997
6 *6:9 *6:11 0.124284
7 *6:8 *6:10 1.4
8 *6:7 *6:9 1.4
9 *6:6 *6:8 0.124289
10 *6:6 *6:7 1.61575
11 *6:5 *6:6 1.4
12 *6:4 *6:5 1.36712
13 *6:3 *6:4 1.4
14 *6:2 *6:3 0.248578
15 *6:1 *6:2 1.4
16 *1415:B0 *6:1 1.4
*END

*D_NET *7 0.0855706

*CONN
*I *1240:SE I *C 90.625 104.835 *L 0.00381 *D SDFFQX1
*I *1226:SE I *C 102.515 101.645 *L 0.00381 *D SDFFQX1
*I *1254:SE I *C 95.555 99.615 *L 0.00381 *D SDFFQX1
*I *1255:SE I *C 117.885 94.395 *L 0.00381 *D SDFFQX1
*I *1241:SE I *C 119.335 91.205 *L 0.00381 *D SDFFQX1
*I *1227:SE I *C 111.215 89.175 *L 0.00381 *D SDFFQX1
*I *1229:SE I *C 114.405 80.765 *L 0.00381 *D SDFFQX1
*I *1257:SE I *C 117.305 75.545 *L 0.00381 *D SDFFQX1
*I *1243:SE I *C 121.945 85.985 *L 0.00381 *D SDFFQX1
*I *1245:SE I *C 118.755 63.075 *L 0.00381 *D SDFFQX1
*I *1260:SE I *C 113.245 57.855 *L 0.00381 *D SDFFQX1
*I *1246:SE I *C 125.715 54.665 *L 0.00381 *D SDFFQX1
*I *1259:SE I *C 117.305 54.665 *L 0.00381 *D SDFFQX1
*I *1228:SE I *C 105.705 63.075 *L 0.00381 *D SDFFQX1
*I *1231:SE I *C 104.545 57.855 *L 0.00381 *D SDFFQX1
*I *1232:SE I *C 101.065 52.635 *L 0.00381 *D SDFFQX1
*I *1242:SE I *C 90.625 59.885 *L 0.00381 *D SDFFQX1
*I *1256:SE I *C 89.175 65.105 *L 0.00381 *D SDFFQX1
*I *1258:SE I *C 86.565 59.885 *L 0.00381 *D SDFFQX1
*I *1244:SE I *C 84.825 54.665 *L 0.00381 *D SDFFQX1
*I *1230:SE I *C 76.995 52.635 *L 0.00381 *D SDFFQX1
*I *1225:SE I *C 68.585 63.075 *L 0.00381 *D SDFFQX1
*I *1239:SE I *C 72.645 70.325 *L 0.00381 *D SDFFQX1
*I *1253:SE I *C 54.665 70.325 *L 0.00381 *D SDFFQX1
*I *1235:SE I *C 50.605 75.545 *L 0.00381 *D SDFFQX1
*I *1221:SE I *C 45.675 85.985 *L 0.00381 *D SDFFQX1
*I *1249:SE I *C 46.255 70.325 *L 0.00381 *D SDFFQX1
*I *1247:SE I *C 49.155 68.295 *L 0.00381 *D SDFFQX1
*I *1233:SE I *C 36.975 54.665 *L 0.00381 *D SDFFQX1
*I *1236:SE I *C 41.905 89.175 *L 0.00381 *D SDFFQX1
*I *1219:SE I *C 34.655 68.295 *L 0.00381 *D SDFFQX1
*I *925:SE I *C 35.525 26.535 *L 0.00381 *D SDFFQX1
*I *1220:SE I *C 33.205 28.565 *L 0.00381 *D SDFFQX1
*I *1224:SE I *C 43.645 94.395 *L 0.00381 *D SDFFQX1
*I *1383:SE I *C 28.275 23.345 *L 0.00381 *D SDFFQX1
*I *1222:SE I *C 39.295 99.615 *L 0.00381 *D SDFFQX1
*I *1412:SE I *C 42.195 16.095 *L 0.00381 *D SDFFQX1
*I *1413:SE I *C 50.315 12.905 *L 0.00381 *D SDFFQX1
*I *1234:SE I *C 24.795 28.565 *L 0.00381 *D SDFFQX1
*I *1250:SE I *C 36.395 94.395 *L 0.00381 *D SDFFQX1
*I *1248:SE I *C 23.635 33.785 *L 0.00381 *D SDFFQX1
*I *1223:SE I *C 38.135 101.645 *L 0.00381 *D SDFFQX1
*I *1251:SE I *C 58.435 91.205 *L 0.00381 *D SDFFQX1
*I *1252:SE I *C 55.825 99.615 *L 0.00381 *D SDFFQX1
*I *1237:SE I *C 41.615 104.835 *L 0.00381 *D SDFFQX1
*I *1238:SE I *C 65.685 101.645 *L 0.00381 *D SDFFQX1
*I *1414:SE I *C 50.895 16.095 *L 0.00381 *D SDFFQX1
*I *1368:SE I *C 58.145 16.095 *L 0.00381 *D SDFFQX1
*I *1386:SE I *C 14.355 39.005 *L 0.00381 *D SDFFQX1
*I *1384:SE I *C 13.485 33.785 *L 0.00484 *D SDFFHQX4
*I *1370:SE I *C 75.835 18.125 *L 0.00381 *D SDFFQX1
*I *1367:SE I *C 73.515 5.655 *L 0.00381 *D SDFFQX1
*I *1387:SE I *C 5.365 42.195 *L 0.00381 *D SDFFQX1
*I *1385:SE I *C 11.165 28.565 *L 0.00381 *D SDFFQX1
*I *1359:SE I *C 82.215 7.685 *L 0.00381 *D SDFFQX1
*I *1358:SE I *C 90.625 5.655 *L 0.00381 *D SDFFQX1
*P *7 I *C 0 0 *L 0

*CAP
1 *7:1 6.13994e-05
2 *7:2 6.13994e-05
3 *7:3 0.000450338
4 *7:4 0.000450338
5 *7:5 0.000252259
6 *7:6 0.000252259
7 *7:7 0.000616699
8 *7:8 0.000591003
9 *7:9 2.56958e-05
10 *7:10 7.39202e-05
11 *7:11 0.000246401
12 *7:12 0.000640641
13 *7:13 0.000246401
14 *7:15 0.000566721
15 *7:17 0.000705019
16 *7:18 0.000705019
17 *7:19 6.88638e-05
18 *7:20 0.000413183
19 *7:21 0.000483099
20 *7:22 0.000390228
21 *7:23 0.000592894
22 *7:24 0.00021959
23 *7:25 4.59092e-05
24 *7:26 0.000109795
25 *7:27 2.29546e-05
26 *7:28 0.00021959
27 *7:29 2.1959e-05
28 *7:30 0.000229546
29 *7:31 2.29546e-05
30 *7:32 0.000642729
31 *7:33 2.1959e-05
32 *7:34 0.00029841
33 *7:36 0.000711593
34 *7:39 6.88638e-05
35 *7:40 0.00021959
36 *7:41 6.88638e-05
37 *7:43 0.000197631
38 *7:44 0.00021959
39 *7:46 0.000197631
40 *7:47 0.000499814
41 *7:48 0.000344319
42 *7:49 0.00156728
43 *7:50 0.000344319
44 *7:52 0.00151431
45 *7:54 0.000110305
46 *7:55 0.000446846
47 *7:56 0.000110305
48 *7:57 0.000352977
49 *7:59 4.41221e-05
50 *7:60 0.000904503
51 *7:62 0.000273073
52 *7:64 0.000595648
53 *7:65 0.000273073
54 *7:67 4.96496e-05
55 *7:68 0.000639771
56 *7:69 0.000446846
57 *7:70 0.000595648
58 *7:71 4.41221e-05
59 *7:72 0.000397197
60 *7:73 6.61832e-05
61 *7:76 2.20611e-05
62 *7:77 0.000351651
63 *7:80 2.20611e-05
64 *7:81 4.96496e-05
65 *7:82 0.000285468
66 *7:84 4.96496e-05
67 *7:85 4.69183e-05
68 *7:88 0.000469182
69 *7:89 0.000784106
70 *7:90 0.000422264
71 *7:91 0.000784106
72 *7:92 2.61369e-05
73 *7:93 0.000164214
74 *7:94 2.61369e-05
75 *7:95 0.000164214
76 *7:97 0.000182958
77 *7:99 0.000287505
78 *7:101 0.000104547
79 *7:103 0.000445723
80 *7:104 0.000422264
81 *7:105 2.34591e-05
82 *7:106 2.61369e-05
83 *7:107 0.000261369
84 *7:108 2.61369e-05
85 *7:109 0.000470464
86 *7:111 2.34591e-05
87 *7:112 0.000209095
88 *7:114 2.34591e-05
89 *7:115 0.000398805
90 *7:117 0.000422264
91 *7:118 5.22737e-05
92 *7:119 2.34591e-05
93 *7:120 5.22737e-05
94 *7:121 0.000653957
95 *7:123 0.000680213
96 *7:125 0.00014472
97 *7:126 2.62559e-05
98 *7:127 0.00014472
99 *7:128 0.000627119
100 *7:130 0.000627119
101 *7:131 0.000315071
102 *7:132 0.000315071
103 *7:133 9.64799e-05
104 *7:134 0.000723599
105 *7:135 0.000627119
106 *7:136 0.000420095
107 *7:137 5.25118e-05
108 *7:138 0.000420095
109 *7:139 0.00168038
110 *7:141 2.412e-05
111 *7:142 0.00200924
112 *7:144 2.412e-05
113 *7:145 2.412e-05
114 *7:146 0.000405711
115 *7:148 2.412e-05
116 *7:149 0.000436287
117 *7:150 2.43381e-05
118 *7:152 0.00139029
119 *7:153 5.13279e-05
120 *7:154 0.000954001
121 *7:155 2.43381e-05
122 *7:156 0.000205311
123 *7:157 0.000395265
124 *7:158 2.43381e-05
125 *7:159 0.000316395
126 *7:160 0.000153984
127 *7:161 0.000543489
128 *7:163 0.000316395
129 *7:164 7.30143e-05
130 *7:165 4.98381e-05
131 *7:166 0.000148224
132 *7:168 2.56639e-05
133 *7:169 0.00109521
134 *7:170 4.98381e-05
135 *7:171 0.000199352
136 *7:172 2.56639e-05
137 *7:174 0.0010222
138 *7:176 0.000199352
139 *7:179 0.00123187
140 *7:180 0.000172928
141 *7:181 2.56639e-05
142 *7:182 0.00346791
143 *7:183 0.000172928
144 *7:184 0.000194705
145 *7:186 0.0022617
146 *7:187 2.49191e-05
147 *7:188 0.000194705
148 *7:189 0.000126078
149 *7:190 0.000473462
150 *7:191 2.56639e-05
151 *7:192 0.000327803
152 *7:193 0.000473462
153 *7:195 2.56639e-05
154 *7:196 0.00017552
155 *7:197 0.000630391
156 *7:198 2.49191e-05
157 *7:199 0.000148224
158 *7:201 0.00084086
159 *7:203 0.000428666
160 *7:204 0.000222336
161 *7:205 0.0013102
162 *7:207 0.000665339
163 *7:209 0.00040619
164 *7:210 0.000222336
165 *7:211 0.00121448
166 *7:213 0.000411514
167 *7:214 2.50744e-05
168 *7:215 0.000381115
169 *7:216 0.000448543
170 *7:217 5.25096e-05
171 *7:218 0.000363429
172 *7:220 0.000912488
173 *7:221 0.000280761
174 *7:223 0.000598057
175 *7:224 2.49191e-05
176 *7:225 0.000266514
177 *7:226 0.000460343
178 *7:227 0.000500974
179 *7:228 1.76825e-05
180 *7:229 0.000362221
181 *7:230 0.000440838
182 *7:232 0.00024704
183 *7:233 0.000266514
184 *7:234 9.69143e-05
185 *7:235 0.000105019
186 *7:236 0.000194507
187 *7:237 1.76825e-05
188 *7:238 2.00855e-05
189 *7:239 8.14607e-05
190 *7:240 0.000266404
191 *7:241 9.88161e-05
192 *7:242 0.00024704
193 *7:243 7.87643e-05
194 *7:244 0.000787643
195 *7:245 0.000105019
196 *7:246 1.76825e-05
197 *7:247 0.000176825
198 *7:249 2.00855e-05
199 *7:250 0.000341454
200 *7:251 0.000176112
201 *7:252 9.88161e-05
202 *7:254 7.87643e-05
203 *7:255 0.000787643
204 *7:256 7.26857e-05
205 *7:257 3.57838e-05
206 *7:260 0.00040171
207 *7:261 0.000176112
208 *7:265 0.000145371
209 *7:266 7.26857e-05
210 *7:267 0.000542151
211 *7:268 6.02566e-05
212 *7:273 0.000145371
213 *7:275 0.00177354
214 *7:277 0.000651686
215 *7:280 0.00128795
216 *7:283 0.000692416
217 *7:284 2.07733e-05
218 *7:285 0.00070482
219 *7:287 0.000301283
220 *7:288 6.10956e-05
221 *7:289 0.000140964
222 *7:290 0.000745096
223 *7:291 0.000522223
224 *7:292 0.000421796
225 *7:293 2.03652e-05
226 *7:294 0.000140964
227 *7:295 0.000166187
228 *7:296 4.02754e-05
229 *7:297 0.000220941
230 *7:299 0.000421796
231 *7:300 6.02566e-05
232 *7:301 2.07733e-05
233 *7:302 0.000166187
234 *7:303 0.000403997
235 *7:304 0.000631321
236 *7:305 0.000183287
237 *7:306 6.02566e-05
238 *7:307 2.07733e-05
239 *7:308 2.01377e-05
240 *7:309 0.000403997
241 *7:310 0.000631321
242 *7:311 0.000183287
243 *7:314 2.01377e-05
244 *7:315 3.41259e-05
245 *7:320 0.000136504
246 *1385:SE 1.51925e-05
247 *7:323 0.000102378
248 *7:324 0.000545818
249 *7:325 1.81939e-05
250 *7:326 0.000545818
251 *7:327 1.81939e-05
252 *7:328 1.7063e-05
253 *7:330 1.7063e-05
254 *7 1.51925e-05

*RES
1 *1385:SE *7 0.0666667
2 *7:330 *1358:SE 1.4
3 *7:329 *1359:SE 1.4
4 *7:328 *7:330 0.124289
5 *7:327 *7:329 1.4
6 *7:326 *7:328 1.4
7 *7:325 *7:327 0.124283
8 *7:324 *7:326 3.7285
9 *7:323 *7:325 1.4
10 *7:320 *7:324 1.4
11 *7:320 *7:323 0.745733
12 *7:317 *1385:SE 1.4
13 *7:316 *1387:SE 1.4
14 *7:315 *7:320 0.248578
15 *7:314 *1367:SE 1.4
16 *7:313 *1370:SE 1.4
17 *7:311 *7:317 1.4
18 *7:310 *7:316 1.4
19 *7:309 *7:315 1.4
20 *7:308 *7:314 0.124288
21 *7:307 *7:313 1.4
22 *7:306 *1384:SE 1.4
23 *7:305 *7:311 1.11855
24 *7:304 *7:310 3.85278
25 *7:303 *7:309 2.61
26 *7:302 *7:308 1.4
27 *7:301 *7:307 0.124289
28 *7:300 *7:306 0.37285
29 *7:299 *7:305 1.4
30 *7:297 *7:304 1.4
31 *7:296 *7:303 1.4
32 *7:295 *7:302 0.99431
33 *7:294 *7:301 1.4
34 *7:293 *7:300 1.4
35 *7:292 *7:299 2.60995
36 *7:291 *1386:SE 1.4
37 *7:291 *7:297 1.36712
38 *7:290 *7:296 0.248577
39 *7:290 *7:295 1.4
40 *7:289 *7:294 0.870018
41 *7:288 *7:293 0.124283
42 *7:288 *7:292 1.4
43 *7:287 *7:291 1.86425
44 *7:285 *7:290 4.35009
45 *7:284 *7:289 1.4
46 *7:283 *7:288 0.248566
47 *7:283 *7:287 1.4
48 *7:281 *1368:SE 1.4
49 *7:280 *7:285 1.4
50 *7:280 *7:284 0.124289
51 *7:277 *7:283 3.97706
52 *7:276 *1414:SE 1.4
53 *7:275 *7:281 1.4
54 *7:275 *7:280 7.58161
55 *7:273 *1238:SE 1.4
56 *7:270 *1237:SE 1.4
57 *7:268 *7:277 1.4
58 *7:267 *7:276 1.4
59 *7:267 *7:275 3.10722
60 *7:266 *1252:SE 1.4
61 *7:265 *7:273 0.745732
62 *7:264 *1251:SE 1.4
63 *7:262 *1223:SE 1.4
64 *7:261 *7:270 1.4
65 *7:260 *1248:SE 1.4
66 *7:260 *7:268 0.37285
67 *7:257 *7:267 0.248578
68 *7:256 *7:266 0.372866
69 *7:255 *7:265 1.4
70 *7:254 *7:264 1.4
71 *7:253 *1250:SE 1.4
72 *7:252 *7:262 1.4
73 *7:251 *7:261 0.99431
74 *7:250 *7:260 2.11282
75 *7:249 *1234:SE 1.4
76 *7:247 *1413:SE 1.4
77 *7:246 *7:257 1.4
78 *7:245 *7:256 1.4
79 *7:244 *7:255 3.72866
80 *7:243 *7:254 0.372866
81 *7:242 *7:253 1.4
82 *7:241 *7:252 0.497132
83 *7:240 *7:251 1.4
84 *7:239 *7:250 1.4
85 *7:238 *7:249 0.124283
86 *7:237 *1412:SE 1.4
87 *7:236 *7:247 1.24284
88 *7:236 *7:246 0.124284
89 *7:235 *7:245 0.497155
90 *7:234 *7:244 1.4
91 *7:233 *7:243 1.4
92 *7:232 *7:242 1.24283
93 *7:230 *7:241 1.4
94 *7:230 *7:240 1.36717
95 *7:229 *7:239 0.497132
96 *7:229 *7:238 1.4
97 *7:228 *7:237 0.124284
98 *7:227 *7:236 1.4
99 *7:226 *7:235 1.4
100 *7:226 *7:234 0.497155
101 *7:225 *7:233 1.36718
102 *7:224 *7:232 1.4
103 *7:223 *1222:SE 1.4
104 *7:223 *7:230 0.870021
105 *7:221 *7:229 1.4914
106 *7:220 *7:228 1.4
107 *7:220 *7:227 3.48009
108 *7:218 *7:226 1.86433
109 *7:217 *7:225 1.4
110 *7:216 *7:224 0.124289
111 *7:216 *7:223 2.11291
112 *7:215 *1383:SE 1.4
113 *7:214 *7:221 1.4
114 *7:213 *7:220 2.85864
115 *7:212 *1224:SE 1.4
116 *7:211 *7:218 1.4
117 *7:211 *7:217 0.248577
118 *7:210 *7:216 1.4
119 *7:209 *7:215 2.23715
120 *7:209 *7:214 0.124289
121 *7:207 *7:213 1.4
122 *7:205 *7:212 1.4
123 *7:205 *7:211 5.71711
124 *7:204 *7:210 1.11855
125 *7:203 *7:209 1.4
126 *7:202 *1220:SE 1.4
127 *7:201 *7:207 4.5985
128 *7:201 *925:SE 1.4
129 *7:199 *7:205 0.745697
130 *7:198 *7:204 1.4
131 *7:197 *7:203 2.11281
132 *7:197 *7:202 1.4
133 *7:196 *7:201 0.87002
134 *7:195 *1219:SE 1.4
135 *7:193 *7:199 1.4
136 *7:193 *7:198 0.124289
137 *7:192 *7:197 0.994263
138 *7:192 *7:196 1.4
139 *7:191 *7:195 0.124283
140 *7:190 *1236:SE 1.4
141 *7:190 *7:193 2.2372
142 *7:189 *7:192 0.621414
143 *7:188 *7:191 1.4
144 *7:187 *7:190 0.124289
145 *7:186 *7:189 1.4
146 *7:184 *7:188 0.994261
147 *7:183 *7:187 1.4
148 *7:182 *7:186 11.1859
149 *7:182 *1233:SE 1.4
150 *7:181 *7:184 1.4
151 *7:180 *7:183 0.86998
152 *7:179 *7:182 5.84129
153 *7:179 *7:181 0.124283
154 *7:176 *7:180 1.4
155 *7:174 *7:179 1.4
156 *7:173 *1247:SE 1.4
157 *7:172 *1249:SE 1.4
158 *7:171 *7:176 0.99431
159 *7:170 *1221:SE 1.4
160 *7:169 *7:174 5.21987
161 *7:169 *7:173 1.4
162 *7:168 *7:172 0.124283
163 *7:166 *7:171 1.4
164 *7:165 *7:170 0.248578
165 *7:164 *7:169 0.372848
166 *7:163 *7:168 1.4
167 *7:162 *1235:SE 1.4
168 *7:161 *7:166 0.745697
169 *7:161 *7:165 1.4
170 *7:160 *7:164 1.4
171 *7:159 *7:163 1.61567
172 *7:158 *7:162 1.4
173 *7:157 *7:161 1.98853
174 *7:156 *7:160 0.745696
175 *7:156 *7:159 1.4
176 *7:155 *7:158 0.124283
177 *7:154 *7:157 1.4
178 *7:153 *7:156 0.248565
179 *7:152 *7:155 1.4
180 *7:152 *7:154 4.72291
181 *7:150 *7:153 1.4
182 *7:149 *7:152 2.11281
183 *7:148 *1253:SE 1.4
184 *7:146 *7:150 0.124283
185 *7:146 *7:149 1.4
186 *7:145 *7:148 0.124284
187 *7:144 *1239:SE 1.4
188 *7:142 *7:146 1.86424
189 *7:142 *7:145 1.4
190 *7:141 *7:144 0.124284
191 *7:140 *1225:SE 1.4
192 *7:139 *7:142 7.70554
193 *7:139 *7:141 1.4
194 *7:138 *7:140 1.4
195 *7:137 *7:139 0.248566
196 *7:136 *7:138 1.98853
197 *7:135 *7:137 1.4
198 *7:134 *7:136 1.4
199 *7:134 *7:135 3.23137
200 *7:133 *7:134 0.497134
201 *7:132 *7:133 1.4
202 *7:131 *7:132 1.49139
203 *7:130 *7:131 1.4
204 *7:128 *7:130 3.23137
205 *7:127 *1230:SE 1.4
206 *7:126 *7:128 1.4
207 *7:125 *7:127 0.745701
208 *7:123 *7:126 0.124283
209 *7:123 *7:125 1.4
210 *7:122 *1244:SE 1.4
211 *7:121 *7:123 3.10719
212 *7:120 *7:122 1.4
213 *7:119 *7:121 1.4
214 *7:118 *7:120 0.248578
215 *7:117 *7:119 0.124288
216 *7:117 *7:118 1.4
217 *7:115 *7:117 2.1129
218 *7:114 *1258:SE 1.4
219 *7:112 *7:115 1.4
220 *7:111 *7:114 0.124288
221 *7:110 *1256:SE 1.4
222 *7:109 *7:112 0.99431
223 *7:109 *7:111 1.4
224 *7:108 *7:110 1.4
225 *7:107 *7:109 1.24289
226 *7:106 *7:108 0.124289
227 *7:105 *7:107 1.4
228 *7:104 *7:106 1.4
229 *7:103 *7:105 0.124288
230 *7:103 *7:104 2.23719
231 *7:101 *7:103 1.4
232 *7:100 *1242:SE 1.4
233 *7:99 *7:101 0.497155
234 *7:99 *7:100 1.4
235 *7:97 *7:99 0.870021
236 *7:96 *1232:SE 1.4
237 *7:95 *7:97 1.4
238 *7:94 *7:96 1.4
239 *7:93 *7:95 0.870017
240 *7:92 *7:94 0.124289
241 *7:91 *7:93 1.4
242 *7:90 *7:92 1.4
243 *7:89 *7:91 3.72866
244 *7:88 *7:90 2.23719
245 *7:88 *7:89 1.4
246 *7:85 *7:88 0.248576
247 *7:84 *1231:SE 1.4
248 *7:83 *1228:SE 1.4
249 *7:82 *7:85 1.4
250 *7:81 *7:84 0.248577
251 *7:80 *7:83 1.4
252 *7:77 *7:82 1.36718
253 *7:77 *7:81 1.4
254 *7:76 *7:80 0.124289
255 *7:75 *1259:SE 1.4
256 *7:74 *1246:SE 1.4
257 *7:73 *7:77 0.372866
258 *7:72 *7:76 1.4
259 *7:71 *7:75 1.4
260 *7:70 *7:74 1.4
261 *7:69 *7:73 1.4
262 *7:69 *7:72 1.98862
263 *7:68 *7:71 0.248578
264 *7:68 *7:70 3.3558
265 *7:67 *7:69 0.248577
266 *7:65 *7:68 1.4
267 *7:64 *7:67 1.4
268 *7:63 *1260:SE 1.4
269 *7:62 *7:65 1.36718
270 *7:60 *7:64 3.3558
271 *7:60 *7:63 1.4
272 *7:59 *7:62 1.4
273 *7:58 *1245:SE 1.4
274 *7:57 *7:60 1.74004
275 *7:57 *7:59 0.248578
276 *7:56 *7:58 1.4
277 *7:55 *7:57 1.4
278 *7:54 *7:56 0.621444
279 *7:52 *7:55 2.2372
280 *7:52 *7:54 1.4
281 *7:50 *1243:SE 1.4
282 *7:49 *7:52 5.34442
283 *7:49 *1257:SE 1.4
284 *7:48 *7:50 1.86424
285 *7:47 *7:49 2.60999
286 *7:46 *7:48 1.4
287 *7:44 *7:47 1.4
288 *7:43 *7:46 1.1186
289 *7:41 *1229:SE 1.4
290 *7:40 *7:44 1.24289
291 *7:39 *7:43 1.4
292 *7:37 *1227:SE 1.4
293 *7:36 *7:41 0.372848
294 *7:36 *7:40 1.4
295 *7:34 *7:39 0.372848
296 *7:34 *1241:SE 1.4
297 *7:33 *7:37 1.4
298 *7:32 *7:36 3.47991
299 *7:31 *1255:SE 1.4
300 *7:30 *7:34 1.24283
301 *7:29 *7:33 0.124289
302 *7:28 *7:32 1.4
303 *7:27 *7:31 0.124283
304 *7:26 *7:30 1.4
305 *7:25 *7:29 1.4
306 *7:24 *7:28 1.24289
307 *7:23 *7:27 1.4
308 *7:23 *7:26 0.621444
309 *7:22 *7:25 0.248565
310 *7:22 *7:24 1.4
311 *7:21 *7:23 2.73435
312 *7:20 *7:22 1.86424
313 *7:20 *7:21 1.4
314 *7:19 *7:20 0.372848
315 *7:18 *7:19 1.4
316 *7:17 *7:18 3.85291
317 *7:15 *7:17 1.4
318 *7:13 *1254:SE 1.4
319 *7:12 *7:15 2.85864
320 *7:12 *1226:SE 1.4
321 *7:11 *7:13 1.24289
322 *7:10 *7:12 0.372866
323 *7:9 *7:11 1.4
324 *7:8 *7:10 1.4
325 *7:7 *7:9 0.124283
326 *7:7 *7:8 2.85851
327 *7:6 *7:7 1.4
328 *7:5 *7:6 1.36718
329 *7:4 *7:5 1.4
330 *7:3 *7:4 2.23709
331 *7:2 *7:3 1.4
332 *7:1 *7:2 0.372866
333 *1240:SE *7:1 1.4
*END

*D_NET *10 0.0132646

*CONN
*I *1391:B0 I *C 6.235 39.585 *L 0.00171 *D AO22XL
*P *10 I *C 0 128.18 *L 0

*CAP
1 *10:1 2.00855e-05
2 *10:2 2.00855e-05
3 *10:3 0.000162921
4 *10:4 0.000162921
5 *10:5 0.00620176
6 *10:6 0.00620176
7 *10:7 0.000238718
8 *10:8 0.00024756
9 *10 8.84141e-06

*RES
1 *10:8 *10 0.0621418
2 *10:7 *10:8 1.67783
3 *10:6 *10:7 1.4
4 *10:5 *10:6 37.7824
5 *10:4 *10:5 1.4
6 *10:3 *10:4 0.994265
7 *10:2 *10:3 1.4
8 *10:1 *10:2 0.124283
9 *1391:B0 *10:1 1.4
*END

*D_NET *11 0.0108029

*CONN
*I *1390:B0 I *C 10.295 39.585 *L 0.00171 *D AO22XL
*P *11 I *C 0 102.545 *L 0

*CAP
1 *11:2 0.000610956
2 *11:3 0.000610956
3 *11:4 0.00467631
4 *11:5 0.00467631
5 *11:6 0.000112094
6 *11:7 0.000114202
7 *11 2.10835e-06

*RES
1 *11:7 *11 0.0128569
2 *11:6 *11:7 0.683557
3 *11:5 *11:6 1.4
4 *11:4 *11:5 26.9694
5 *11:3 *11:4 1.4
6 *11:2 *11:3 3.72849
7 *11:1 *11:2 1.4
8 *1390:B0 *11:1 1.4
*END

*D_NET *12 0.00806849

*CONN
*I *1388:B0 I *C 13.485 36.395 *L 0.00171 *D AO22XL
*P *12 I *C 0 76.91 *L 0

*CAP
1 *12:1 2.00855e-05
2 *12:2 2.00855e-05
3 *12:3 0.000834973
4 *12:4 0.000834973
5 *12:5 0.00305962
6 *12:6 0.00305962
7 *12:7 0.000113519
8 *12:8 0.000119568
9 *12 6.04958e-06

*RES
1 *12:8 *12 0.0364278
2 *12:7 *12:8 0.683557
3 *12:6 *12:7 1.4
4 *12:5 *12:6 17.524
5 *12:4 *12:5 1.4
6 *12:3 *12:4 5.09561
7 *12:2 *12:3 1.4
8 *12:1 *12:2 0.124283
9 *1388:B0 *12:1 1.4
*END

*D_NET *13 0.00346586

*CONN
*I *1389:B0 I *C 10.005 36.395 *L 0.00171 *D AO22XL
*P *13 I *C 0 51.27 *L 0

*CAP
1 *13:1 4.0171e-05
2 *13:2 4.0171e-05
3 *13:3 0.000570225
4 *13:4 0.000570225
5 *13:5 0.00098419
6 *13:6 0.00098419
7 *13:7 0.000132374
8 *13:8 0.000138343
9 *13 5.96911e-06

*RES
1 *13:8 *13 0.0364278
2 *13:7 *13:8 0.80784
3 *13:6 *13:7 1.4
4 *13:5 *13:6 6.08988
5 *13:4 *13:5 1.4
6 *13:3 *13:4 3.47993
7 *13:2 *13:3 1.4
8 *13:1 *13:2 0.248567
9 *1389:B0 *13:1 1.4
*END

*D_NET *14 0.00281206

*CONN
*P *14 O *C 104.865 0 *L 0
*I *1358:SI I *C 90.915 5.365 *L 0.00172 *D SDFFQX1
*I *1359:Q O *C 89.175 7.395 *L 0 *D SDFFQX1

*CAP
1 *14 1.61721e-06
2 *14:1 0.000118865
3 *14:2 0.000117248
4 *14:3 0.000870869
5 *14:4 0.000870869
6 *14:5 0.000187693
7 *14:6 0.000307134
8 *14:7 0.000119441
9 *14:9 0.000109164
10 *14:10 0.000109164

*RES
1 *14:11 *1359:Q 1.4
2 *14:10 *14:11 1.4
3 *14:9 *14:10 0.7457
4 *14:7 *14:9 1.4
5 *14:6 *1358:SI 1.4
6 *14:6 *14:7 0.870021
7 *14:5 *14:6 1.36718
8 *14:4 *14:5 1.4
9 *14:3 *14:4 5.96561
10 *14:2 *14:3 1.4
11 *14:1 *14:2 0.932166
12 *14 *14:1 0.0128575
*END

*D_NET *15 0.0189516

*CONN
*P *15 O *C 131.08 0 *L 0
*I *1358:Q O *C 97.585 5.945 *L 0 *D SDFFQX1
*I *1254:SI I *C 95.845 99.325 *L 0.00172 *D SDFFQX1

*CAP
1 *15 7.8224e-06
2 *15:1 0.000109514
3 *15:2 0.000101691
4 *15:3 0.00192387
5 *15:4 0.00192387
6 *15:5 0.000119441
7 *15:6 0.000119441
8 *15:7 1.81939e-05
9 *15:8 1.81939e-05
10 *15:9 0.000119441
11 *15:10 0.00715059
12 *15:11 0.00703115
13 *15:13 0.000154175
14 *15:14 0.000154175

*RES
1 *15:15 *1254:SI 1.4
2 *15:14 *15:15 1.4
3 *15:13 *15:14 0.745697
4 *15:11 *15:13 1.4
5 *15:10 *1358:Q 1.4
6 *15:10 *15:11 40.0209
7 *15:9 *15:10 0.870021
8 *15:8 *15:9 1.4
9 *15:7 *15:8 0.124283
10 *15:6 *15:7 1.4
11 *15:5 *15:6 0.870021
12 *15:4 *15:5 1.4
13 *15:3 *15:4 14.1688
14 *15:2 *15:3 1.4
15 *15:1 *15:2 0.807837
16 *15 *15:1 0.0621413
*END

*D_NET *16 0.00274682

*CONN
*I *1287:A1 I *C 117.885 57.855 *L 0.00168 *D AO22XL
*I *1246:Q O *C 118.755 54.375 *L 0 *D SDFFQX1
*I *1096:A0 I *C 122.525 44.515 *L 0.00264 *D AOI22X1
*P *16 O *C 0 0 *L 0

*CAP
1 *16:2 2.20611e-05
2 *16:3 2.20611e-05
3 *16:4 0.000148949
4 *16:5 0.000148949
5 *16:6 4.41221e-05
6 *16:7 4.41221e-05
7 *16:8 0.000148949
8 *16:9 0.000872729
9 *16:11 0.000738973
10 *16:12 0.000270358
11 *16:13 0.000270358
12 *16 1.51925e-05

*RES
1 *16:11 *16 0.0666667
2 *16:14 *1096:A0 1.4
3 *16:13 *16:14 1.4
4 *16:12 *16:13 1.61568
5 *16:11 *16:12 1.4
6 *16:9 *16:11 4.22567
7 *16:9 *1246:Q 1.4
8 *16:8 *16:9 0.745732
9 *16:7 *16:8 1.4
10 *16:6 *16:7 0.248578
11 *16:5 *16:6 1.4
12 *16:4 *16:5 0.745732
13 *16:3 *16:4 1.4
14 *16:2 *16:3 0.124289
15 *16:1 *16:2 1.4
16 *1287:A1 *16:1 1.4
*END

*D_NET *17 0.010097

*CONN
*I *1401:A0N I *C 101.935 26.245 *L 0.00167 *D OAI2BB1XL
*I *1405:A I *C 102.225 21.025 *L 0.00173 *D OR2X1
*I *1400:A1 I *C 74.675 21.025 *L 0.00169 *D OAI211XL
*I *1407:A I *C 70.905 26.245 *L 0.00157 *D NAND2XL
*I *1411:A I *C 67.715 26.535 *L 0.00273 *D CLKINVX1
*I *1408:A I *C 59.595 26.535 *L 0.00162 *D NOR2XL
*I *1430:B I *C 59.885 21.315 *L 0.00284 *D NAND2BX1
*I *1427:B I *C 57.565 21.025 *L 0.00171 *D NOR2XL
*I *1413:Q O *C 57.275 12.615 *L 0 *D SDFFQX1
*P *17 O *C 0 0 *L 0

*CAP
1 *17:1 0.000309422
2 *17:2 0.000309422
3 *17:3 0.00176067
4 *17:4 1.81939e-05
5 *17:5 0.00174247
6 *17:7 0.000363215
7 *17:9 0.000363215
8 *17:11 0.00034039
9 *17:12 0.000628412
10 *17:14 0.000968802
11 *17:16 2.16089e-05
12 *17:17 0.00068078
13 *17:18 2.16089e-05
14 *17:19 0.00032441
15 *17:21 2.16089e-05
16 *17:22 0.000302801
17 *17:23 5.23677e-05
18 *17:24 2.07733e-05
19 *17:25 5.23677e-05
20 *17:26 0.00018696
21 *17:28 4.02754e-05
22 *17:29 0.000166187
23 *17:31 4.02754e-05
24 *17:32 6.04132e-05
25 *17:34 0.000644407
26 *17:36 0.000583994
27 *17:37 2.07733e-05
28 *17:38 2.07733e-05
29 *1413:Q 1.51925e-05
30 *17 1.51925e-05

*RES
1 *1413:Q *17 0.0666667
2 *17:39 *1413:Q 1.4
3 *17:38 *17:39 1.4
4 *17:37 *17:38 0.124289
5 *17:36 *17:37 1.4
6 *17:34 *17:36 3.60436
7 *17:34 *1427:B 1.4
8 *17:32 *17:34 0.372865
9 *17:31 *1430:B 1.4
10 *17:29 *17:32 1.4
11 *17:28 *17:31 0.248577
12 *17:27 *1408:A 1.4
13 *17:26 *17:29 0.99431
14 *17:26 *17:28 1.4
15 *17:25 *17:27 1.4
16 *17:24 *17:26 0.124289
17 *17:23 *17:25 0.248577
18 *17:22 *17:24 1.4
19 *17:21 *17:23 1.4
20 *17:19 *17:22 1.86432
21 *17:19 *17:21 0.124283
22 *17:18 *1411:A 1.4
23 *17:17 *17:19 1.4
24 *17:16 *17:18 0.124283
25 *17:14 *17:17 3.23151
26 *17:14 *17:16 1.4
27 *17:13 *1407:A 1.4
28 *17:12 *17:14 1.36718
29 *17:12 *17:13 1.4
30 *17:11 *17:12 1.61575
31 *17:9 *17:11 1.4
32 *17:7 *1400:A1 1.4
33 *17:7 *17:9 2.23719
34 *17:6 *1405:A 1.4
35 *17:5 *17:7 1.4
36 *17:4 *17:6 1.4
37 *17:3 *17:5 11.6827
38 *17:3 *17:4 0.124283
39 *17:2 *17:3 1.4
40 *17:1 *17:2 2.2372
41 *1401:A0N *17:1 1.4
*END

*D_NET *18 0.0024864

*CONN
*P *18 O *C 78.65 0 *L 0
*I *1396:Y O *C 79.025 20.735 *L 0 *D OR2X1

*CAP
1 *18 5.00122e-06
2 *18:1 0.001225
3 *18:2 0.00122
4 *18:3 1.81939e-05
5 *18:4 1.81939e-05

*RES
1 *18:5 *1396:Y 1.4
2 *18:4 *18:5 1.4
3 *18:3 *18:4 0.124283
4 *18:2 *18:3 1.4
5 *18:1 *18:2 8.88665
6 *18 *18:1 0.0364295
*END

*D_NET *19 0.00316373

*CONN
*I *1361:A1 I *C 65.975 7.975 *L 0.00267 *D OAI31X1
*I *723:Y O *C 62.4125 7.975 *L 0 *D INVXL
*P *19 O *C 52.43 0 *L 0

*CAP
1 *19:1 2.01377e-05
2 *19:2 2.01377e-05
3 *19:3 0.00024928
4 *19:4 0.00024928
5 *19:5 2.01377e-05
6 *19:6 0.000468723
7 *19:7 5.55523e-06
8 *19:8 0.00044303
9 *19:10 0.000727067
10 *19:11 0.000727067
11 *19:12 0.000110757
12 *19:13 0.00011666
13 *19 5.90244e-06

*RES
1 *19:13 *19 0.0364293
2 *19:12 *19:13 0.683586
3 *19:11 *19:12 1.4
4 *19:10 *19:11 4.35011
5 *19:8 *19:10 1.4
6 *19:7 *723:Y 1.4
7 *19:6 *19:8 2.73434
8 *19:6 *19:7 0.0342864
9 *19:5 *19:6 0.124288
10 *19:4 *19:5 1.4
11 *19:3 *19:4 1.49147
12 *19:2 *19:3 1.4
13 *19:1 *19:2 0.124288
14 *1361:A1 *19:1 1.4
*END

*D_NET *20 0.0023285

*CONN
*P *20 O *C 131.08 109.865 *L 0
*I *1394:Y O *C 126.088 99.325 *L 0 *D INVXL

*CAP
1 *20 5.38665e-06
2 *20:1 0.000372195
3 *20:2 0.000366809
4 *20:3 0.000741411
5 *20:4 0.000741411
6 *20:5 4.39181e-05
7 *20:6 4.39181e-05
8 *20:7 6.72808e-06
9 *20:8 6.72808e-06

*RES
1 *20:8 *1394:Y 1.4
2 *20:7 *20:8 0.0364277
3 *20:6 *20:7 1.4
4 *20:5 *20:6 0.248577
5 *20:4 *20:5 1.4
6 *20:3 *20:4 4.47428
7 *20:2 *20:3 1.4
8 *20:1 *20:2 2.42353
9 *20 *20:1 0.0428571
*END

*D_NET *21 0.0211225

*CONN
*P *21 O *C 131.08 91.555 *L 0
*I *1394:A I *C 125.725 99.3875 *L 0.00163 *D INVXL
*I *1399:Y O *C 74.965 25.955 *L 0 *D NOR2XL

*CAP
1 *21 3.28143e-06
2 *21:1 1.12115e-05
3 *21:2 7.93011e-06
4 *21:3 1.57193e-05
5 *21:4 1.57193e-05
6 *21:5 0.000451991
7 *21:6 0.000451991
8 *21:7 0.000619775
9 *21:8 0.00059682
10 *21:9 2.29546e-05
11 *21:10 6.58771e-05
12 *21:11 0.00416266
13 *21:12 6.58771e-05
14 *21:13 0.00416266
15 *21:14 5.145e-06
16 *21:15 0.00522807
17 *21:16 5.93654e-06
18 *21:17 0.00522807
19 *21:18 7.91538e-07

*RES
1 *21:21 *1399:Y 1.4
2 *21:19 *21:21 1.4
3 *21:18 *1394:A 1.4
4 *21:17 *21:19 1.4
5 *21:16 *21:18 0.00428561
6 *21:15 *21:17 28.0883
7 *21:14 *21:16 0.0278565
8 *21:13 *21:15 1.4
9 *21:12 *21:14 1.4
10 *21:11 *21:13 21.3771
11 *21:10 *21:12 0.372866
12 *21:9 *21:11 1.4
13 *21:8 *21:10 1.4
14 *21:7 *21:9 0.124283
15 *21:7 *21:8 3.23135
16 *21:6 *21:7 1.4
17 *21:5 *21:6 2.61006
18 *21:4 *21:5 1.4
19 *21:3 *21:4 0.124286
20 *21:2 *21:3 1.4
21 *21:1 *21:2 0.0621444
22 *21 *21:1 0.0257149
*END

*D_NET *22 0.0094552

*CONN
*P *22 O *C 131.08 54.935 *L 0
*I *1401:Y O *C 102.775 26.62 *L 0 *D OAI2BB1XL

*CAP
1 *22 1.08111e-06
2 *22:1 8.9192e-06
3 *22:2 7.83808e-06
4 *22:3 0.00267391
5 *22:4 0.00267391
6 *22:5 0.00203619
7 *22:6 0.00203619
8 *22:7 6.3426e-06
9 *22:8 8.58117e-06
10 *22:9 2.23857e-06

*RES
1 *22:9 *1401:Y 1.4
2 *22:8 *22:9 0.0128575
3 *22:7 *22:8 0.0364295
4 *22:6 *22:7 1.4
5 *22:5 *22:6 12.0555
6 *22:4 *22:5 1.4
7 *22:3 *22:4 12.1803
8 *22:2 *22:3 1.4
9 *22:1 *22:2 0.0621429
10 *22 *22:1 0.00857143
*END

*D_NET *23 0.00727274

*CONN
*P *23 O *C 131.08 36.62 *L 0
*I *1401:B0 I *C 102.225 26.245 *L 0.00173 *D OAI2BB1XL
*I *1405:Y O *C 102.805 20.735 *L 0 *D OR2X1
*I *1397:B I *C 102.515 18.125 *L 0.00168 *D NAND2BXL

*CAP
1 *23 3.61504e-06
2 *23:1 1.16794e-05
3 *23:2 8.06433e-06
4 *23:3 0.00102105
5 *23:4 0.00102105
6 *23:5 0.0020617
7 *23:6 0.00208721
8 *23:7 0.00024117
9 *23:8 2.55069e-05
10 *23:9 0.00024117
11 *23:11 1.81939e-05
12 *23:13 1.81939e-05
13 *23:14 8.53149e-05
14 *23:15 0.000238882
15 *23:17 0.000153567
16 *23:18 1.81939e-05
17 *23:19 1.81939e-05

*RES
1 *23:20 *1397:B 1.4
2 *23:19 *23:20 1.4
3 *23:18 *23:19 0.124283
4 *23:17 *23:18 1.4
5 *23:15 *23:17 1.1186
6 *23:15 *1405:Y 1.4
7 *23:14 *23:15 0.621444
8 *23:13 *23:14 1.4
9 *23:11 *23:13 0.124283
10 *23:10 *1401:B0 1.4
11 *23:9 *23:11 1.4
12 *23:8 *23:10 1.4
13 *23:7 *23:9 1.74004
14 *23:6 *23:8 0.124289
15 *23:6 *23:7 1.4
16 *23:5 *23:6 12.1798
17 *23:4 *23:5 1.4
18 *23:3 *23:4 4.4744
19 *23:2 *23:3 1.4
20 *23:1 *23:2 0.0621444
21 *23 *23:1 0.0278578
*END

*D_NET *24 0.00332152

*CONN
*P *24 O *C 131.08 18.31 *L 0
*I *1397:Y O *C 102.805 17.835 *L 0 *D NAND2BXL

*CAP
1 *24 5.65882e-06
2 *24:1 1.34734e-05
3 *24:2 7.81456e-06
4 *24:3 1.56448e-05
5 *24:4 1.56448e-05
6 *24:5 0.00161458
7 *24:6 0.00161458
8 *24:7 1.7063e-05
9 *24:8 1.7063e-05

*RES
1 *24:8 *1397:Y 1.4
2 *24:7 *24:8 0.124289
3 *24:6 *24:7 1.4
4 *24:5 *24:6 12.056
5 *24:4 *24:5 1.4
6 *24:3 *24:4 0.124283
7 *24:2 *24:3 1.4
8 *24:1 *24:2 0.0621444
9 *24 *24:1 0.0450011
*END

*D_NET *25 0.00958732

*CONN
*P *25 O *C 131.08 0 *L 0
*I *1400:Y O *C 74.965 20.445 *L 0 *D OAI211XL

*CAP
1 *25 7.81456e-06
2 *25:1 1.56291e-05
3 *25:2 7.81456e-06
4 *25:3 7.8224e-05
5 *25:4 7.8224e-05
6 *25:5 0.00339086
7 *25:6 0.00339086
8 *25:7 0.00130895
9 *25:8 0.00130895

*RES
1 *25:8 *1400:Y 1.4
2 *25:7 *25:8 8.07874
3 *25:6 *25:7 1.4
4 *25:5 *25:6 23.9872
5 *25:4 *25:5 1.4
6 *25:3 *25:4 0.621413
7 *25:2 *25:3 1.4
8 *25:1 *25:2 0.0621444
9 *25 *25:1 0.0621444
*END

*D_NET *26 0.0296915

*CONN
*I *1207:B I *C 41.615 79.025 *L 0.00284 *D NAND2X1
*I *1181:A1 I *C 33.785 81.055 *L 0.00277 *D OAI22X1
*I *1061:A0 I *C 40.165 75.835 *L 0.00265 *D OAI22X1
*I *1352:A1 I *C 32.335 68.295 *L 0.00168 *D AO22XL
*I *1353:A1 I *C 23.055 65.105 *L 0.00168 *D AO22XL
*I *1354:A1 I *C 31.755 65.105 *L 0.00168 *D AO22XL
*I *1180:B1 I *C 32.045 59.885 *L 0.00283 *D AOI22X1
*I *1208:B I *C 21.025 68.005 *L 0.00536 *D AND2X6
*I *1133:B1 I *C 15.515 68.295 *L 0.00268 *D AOI221X1
*I *1213:A I *C 8.555 60.175 *L 0.0208 *D INVX8
*I *1130:A I *C 6.525 85.985 *L 0.00162 *D NOR2XL
*I *1182:B1 I *C 8.265 52.635 *L 0.00283 *D AOI22X1
*I *1179:A1 I *C 15.805 86.275 *L 0.00277 *D OAI22X1
*I *1184:B1 I *C 16.675 54.665 *L 0.00283 *D AOI22X1
*I *1183:B1 I *C 14.645 44.225 *L 0.00283 *D AOI22X1
*I *1387:Q O *C 12.325 42.485 *L 0 *D SDFFQX1
*I *1185:B1 I *C 22.185 49.445 *L 0.00283 *D AOI22X1
*I *1178:B1 I *C 24.505 42.195 *L 0.00283 *D AOI22X1
*I *1384:SI I *C 13.485 34.075 *L 0.00273 *D SDFFHQX4
*I *1391:A1 I *C 7.395 39.005 *L 0.00168 *D AO22XL
*I *1176:B0 I *C 28.855 39.005 *L 0.00159 *D AOI22XL
*I *1175:B0 I *C 28.855 44.225 *L 0.00159 *D AOI22XL
*I *1177:B0 I *C 33.785 39.005 *L 0.00159 *D AOI22XL
*I *1218:B I *C 40.745 39.295 *L 0.00272 *D NOR3BX1
*I *1216:B I *C 44.225 39.005 *L 0.00284 *D NAND2BX1
*I *1202:B I *C 44.225 36.685 *L 0.00171 *D NOR2XL

*CAP
1 *26:1 2.49191e-05
2 *26:2 2.49191e-05
3 *26:3 0.000148224
4 *26:4 0.000148224
5 *26:5 0.000254032
6 *26:6 0.00030536
7 *26:7 0.0005111
8 *26:8 5.13279e-05
9 *26:9 0.0005111
10 *26:10 2.43381e-05
11 *26:11 0.000506202
12 *26:12 2.43381e-05
13 *26:13 0.000403547
14 *26:14 0.000102656
15 *26:17 9.73524e-05
16 *26:19 9.73524e-05
17 *26:20 0.000615934
18 *26:21 0.000821246
19 *26:22 2.43381e-05
20 *26:23 0.000205311
21 *26:24 2.43381e-05
22 *26:25 0.000146029
23 *26:27 0.000764324
24 *26:29 7.69918e-05
25 *26:30 0.000618296
26 *26:31 0.000538943
27 *26:32 0.00022747
28 *26:33 7.30143e-05
29 *26:34 0.000461951
30 *26:35 0.000159229
31 *26:36 6.82411e-05
32 *26:37 7.30143e-05
33 *26:38 9.73524e-05
34 *26:39 0.000144478
35 *26:42 9.73524e-05
36 *26:43 0.000515993
37 *26:47 0.000392155
38 *26:50 0.00100087
39 *26:51 2.06397e-05
40 *26:52 0.00100087
41 *26:53 2.2747e-05
42 *26:54 2.06397e-05
43 *26:55 0.00136461
44 *26:56 0.000515993
45 *26:57 0.00136288
46 *26:59 4.54941e-05
47 *26:60 0.000515993
48 *26:61 2.10222e-05
49 *26:62 0.000631802
50 *26:63 0.000891623
51 *26:64 0.0003867
52 *26:65 2.06397e-05
53 *26:66 2.03807e-05
54 *26:67 0.000631802
55 *26:68 8.25589e-05
56 *26:69 0.000906386
57 *26:70 0.0003867
58 *26:71 0.000204723
59 *26:72 2.03807e-05
60 *26:74 8.25589e-05
61 *26:75 6.10956e-05
62 *26:76 6.02566e-05
63 *26:78 0.000204723
64 *26:82 0.000224017
65 *26:83 0.000468399
66 *26:87 0.000100428
67 *26:88 0.000162921
68 *26:89 0.000468399
69 *26:90 0.000100428
70 *26:91 2.00855e-05
71 *26:92 2.00855e-05
72 *26:94 0.000281197
73 *26:95 0.000522223
74 *26:97 0.000261112
75 *26:98 0.000502138
76 *26:99 0.000162921
77 *26:100 0.000427669
78 *26:102 0.000464047
79 *26:103 8.14607e-05
80 *26:104 0.000346208
81 *26:105 0.000351557
82 *26:107 0.000321368
83 *26:108 2.00855e-05
84 *26:109 5.04313e-05
85 *26:110 0.00017552
86 *26:112 0.000321368
87 *26:113 2.00855e-05
88 *26:114 0.000275818
89 *26:115 0.00017552
90 *26:118 0.000275818
91 *26:119 5.04313e-05
92 *26:121 0.000428666
93 *26:122 5.04313e-05
94 *26:123 0.00103384
95 *26:125 0.000832116
96 *26:128 0.000302588
97 *26:129 2.50744e-05
98 *26:131 7.56469e-05
99 *26:132 2.50744e-05
100 *26:133 0.000200595
101 *26:136 0.000200595

*RES
1 *26:136 *1202:B 1.4
2 *26:133 *26:136 0.994308
3 *26:133 *1216:B 1.4
4 *26:132 *1218:B 1.4
5 *26:131 *26:133 1.4
6 *26:129 *26:132 0.124289
7 *26:128 *26:131 0.372849
8 *26:126 *1177:B0 1.4
9 *26:125 *26:129 1.4
10 *26:125 *26:128 1.11855
11 *26:124 *1175:B0 1.4
12 *26:123 *26:126 1.4
13 *26:123 *26:125 2.98279
14 *26:122 *26:124 1.4
15 *26:121 *26:123 2.11281
16 *26:119 *26:122 0.248566
17 *26:118 *26:121 1.4
18 *26:118 *1176:B0 1.4
19 *26:115 *26:119 1.4
20 *26:114 *26:118 1.36717
21 *26:113 *1391:A1 1.4
22 *26:112 *1384:SI 1.4
23 *26:110 *26:115 0.87002
24 *26:109 *26:114 1.4
25 *26:108 *26:113 0.124283
26 *26:107 *26:112 1.98853
27 *26:106 *1178:B1 1.4
28 *26:105 *26:110 1.4
29 *26:105 *26:109 0.248566
30 *26:104 *26:108 1.4
31 *26:103 *26:107 1.4
32 *26:102 *26:106 1.4
33 *26:102 *26:105 1.61568
34 *26:100 *26:104 2.11281
35 *26:100 *26:103 0.497132
36 *26:99 *26:102 0.994265
37 *26:98 *1185:B1 1.4
38 *26:97 *26:100 1.4
39 *26:95 *26:99 1.4
40 *26:95 *26:98 3.10708
41 *26:94 *26:97 1.61568
42 *26:94 *1387:Q 1.4
43 *26:92 *26:95 0.124283
44 *26:91 *26:94 0.124283
45 *26:90 *1183:B1 1.4
46 *26:89 *26:92 1.4
47 *26:88 *26:91 1.4
48 *26:87 *26:90 0.621416
49 *26:83 *26:89 2.85851
50 *26:82 *26:88 0.994265
51 *26:82 *26:87 1.4
52 *26:81 *1184:B1 1.4
53 *26:79 *1179:A1 1.4
54 *26:78 *1182:B1 1.4
55 *26:76 *26:83 1.4
56 *26:75 *26:82 0.372849
57 *26:74 *26:81 1.4
58 *26:73 *1130:A 1.4
59 *26:72 *26:79 1.4
60 *26:71 *26:78 1.11855
61 *26:70 *1213:A 1.4
62 *26:69 *26:76 0.37285
63 *26:69 *26:75 1.4
64 *26:68 *26:74 0.497132
65 *26:67 *26:73 1.4
66 *26:66 *26:72 0.124283
67 *26:65 *26:71 1.4
68 *26:64 *26:70 2.11282
69 *26:63 *26:69 5.09562
70 *26:63 *26:68 1.4
71 *26:62 *26:67 3.85278
72 *26:61 *26:66 1.4
73 *26:60 *26:65 0.124283
74 *26:60 *26:64 1.4
75 *26:59 *26:63 0.248567
76 *26:57 *26:62 1.4
77 *26:57 *26:61 0.124283
78 *26:56 *26:60 2.98279
79 *26:56 *26:59 1.4
80 *26:55 *1133:B1 1.4
81 *26:55 *26:57 7.58127
82 *26:54 *26:56 0.124283
83 *26:53 *26:55 0.124284
84 *26:52 *26:54 1.4
85 *26:51 *26:53 1.4
86 *26:50 *26:52 5.46848
87 *26:47 *26:51 0.124283
88 *26:47 *26:50 1.4
89 *26:46 *1208:B 1.4
90 *26:45 *1180:B1 1.4
91 *26:43 *26:47 2.2371
92 *26:43 *26:46 1.4
93 *26:42 *26:45 1.4
94 *26:41 *1354:A1 1.4
95 *26:39 *26:43 0.869982
96 *26:38 *26:42 0.497131
97 *26:37 *26:41 1.4
98 *26:36 *1353:A1 1.4
99 *26:35 *26:39 1.4
100 *26:34 *26:38 1.4
101 *26:33 *26:37 0.372848
102 *26:32 *26:36 0.372851
103 *26:32 *26:35 0.869985
104 *26:31 *26:34 2.23709
105 *26:31 *26:33 1.4
106 *26:30 *26:32 1.4
107 *26:29 *26:31 0.372848
108 *26:27 *26:30 3.35564
109 *26:27 *26:29 1.4
110 *26:26 *1352:A1 1.4
111 *26:25 *26:27 0.745696
112 *26:24 *26:26 1.4
113 *26:23 *26:25 1.4
114 *26:22 *26:24 0.124283
115 *26:21 *26:23 0.994261
116 *26:21 *26:22 1.4
117 *26:20 *26:21 2.98278
118 *26:19 *26:20 1.4
119 *26:17 *26:19 0.497131
120 *26:15 *1061:A0 1.4
121 *26:14 *26:17 1.4
122 *26:13 *1181:A1 1.4
123 *26:12 *26:15 1.4
124 *26:11 *26:14 0.497131
125 *26:11 *26:13 1.98858
126 *26:10 *26:12 0.124283
127 *26:9 *26:11 1.4
128 *26:8 *26:10 1.4
129 *26:7 *26:9 2.60994
130 *26:6 *26:8 0.248565
131 *26:6 *26:7 1.4
132 *26:5 *26:6 1.24285
133 *26:4 *26:5 1.4
134 *26:3 *26:4 0.745697
135 *26:2 *26:3 1.4
136 *26:1 *26:2 0.124289
137 *1207:B *26:1 1.4
*END

*D_NET *27 0.0112772

*CONN
*I *1202:A I *C 43.935 36.975 *L 0.00162 *D NOR2XL
*I *1218:AN I *C 41.325 39.005 *L 0.0018 *D NOR3BX1
*I *1131:B I *C 45.965 44.225 *L 0.0028 *D NOR2BX1
*I *946:A I *C 43.355 44.515 *L 0.00178 *D AND3X1
*I *1204:A I *C 36.105 49.445 *L 0.00162 *D NOR2XL
*I *1195:A I *C 32.335 49.445 *L 0.00263 *D NOR2X1
*I *1196:B I *C 25.085 49.735 *L 0.00172 *D AND2X1
*I *1203:A I *C 37.265 52.345 *L 0.00178 *D AND2X1
*I *1248:SI I *C 23.345 34.075 *L 0.00172 *D SDFFQX1
*I *1386:Q O *C 21.315 38.715 *L 0 *D SDFFQX1
*I *1390:A1 I *C 11.455 39.005 *L 0.00168 *D AO22XL

*CAP
1 *27:1 0.000150446
2 *27:2 0.000150446
3 *27:3 2.52156e-05
4 *27:4 0.000226941
5 *27:5 0.000476413
6 *27:6 0.000201725
7 *27:7 0.000476413
8 *27:8 2.50744e-05
9 *27:9 0.000226941
10 *27:10 2.50744e-05
11 *27:11 0.000201725
12 *27:12 0.000504313
13 *27:15 2.50744e-05
14 *27:16 0.000479097
15 *27:18 2.50744e-05
16 *27:19 0.000426264
17 *27:21 0.000426264
18 *27:22 0.000151294
19 *27:23 0.000176509
20 *27:24 2.50744e-05
21 *27:25 0.000327803
22 *27:26 2.50744e-05
23 *27:27 0.000276113
24 *27:28 0.000916002
25 *27:30 0.000276113
26 *27:31 2.50744e-05
27 *27:32 0.000613414
28 *27:33 0.000121691
29 *27:34 2.50744e-05
30 *27:35 0.000642737
31 *27:36 0.000121691
32 *27:38 4.0171e-05
33 *27:39 0.000602566
34 *27:42 0.000122191
35 *27:44 0.000122191
36 *27:45 0.000120513
37 *27:46 0.000441881
38 *27:47 0.000142556
39 *27:48 0.000321368
40 *27:49 0.000142556
41 *27:51 2.00855e-05
42 *27:52 2.00855e-05
43 *27:54 0.000692416
44 *27:55 0.000692416

*RES
1 *27:56 *1390:A1 1.4
2 *27:55 *27:56 1.4
3 *27:54 *27:55 4.22563
4 *27:52 *27:54 1.4
5 *27:51 *1386:Q 1.4
6 *27:51 *27:52 0.124283
7 *27:49 *27:51 1.4
8 *27:48 *1248:SI 1.4
9 *27:47 *27:49 0.869982
10 *27:46 *27:48 1.98853
11 *27:46 *27:47 1.4
12 *27:45 *27:46 0.7457
13 *27:44 *27:45 1.4
14 *27:42 *27:44 0.745699
15 *27:40 *1203:A 1.4
16 *27:39 *27:42 1.4
17 *27:38 *1196:B 1.4
18 *27:36 *27:40 1.4
19 *27:35 *27:39 3.7285
20 *27:35 *27:38 0.248567
21 *27:34 *1195:A 1.4
22 *27:33 *27:36 0.621413
23 *27:32 *27:35 1.4
24 *27:31 *27:34 0.124289
25 *27:30 *27:33 1.4
26 *27:28 *27:32 3.10707
27 *27:28 *27:31 1.4
28 *27:27 *27:30 1.36717
29 *27:26 *1204:A 1.4
30 *27:25 *27:28 1.49139
31 *27:25 *27:27 1.4
32 *27:24 *27:26 0.124289
33 *27:23 *27:25 0.124283
34 *27:23 *27:24 1.4
35 *27:22 *27:23 0.745697
36 *27:21 *27:22 1.4
37 *27:19 *27:21 2.11291
38 *27:18 *946:A 1.4
39 *27:16 *27:19 1.4
40 *27:15 *27:18 0.124289
41 *27:14 *1131:B 1.4
42 *27:12 *27:16 2.36138
43 *27:12 *27:15 1.4
44 *27:11 *27:14 1.4
45 *27:10 *1218:AN 1.4
46 *27:9 *27:12 0.124283
47 *27:9 *27:11 0.994263
48 *27:8 *27:10 0.124289
49 *27:7 *27:9 1.4
50 *27:6 *27:8 1.4
51 *27:5 *27:7 2.36148
52 *27:4 *27:6 0.994263
53 *27:4 *27:5 1.4
54 *27:3 *27:4 0.124283
55 *27:2 *27:3 1.4
56 *27:1 *27:2 0.745731
57 *1202:A *27:1 1.4
*END

*D_NET *28 0.0125407

*CONN
*I *1336:A I *C 43.935 31.755 *L 0.00264 *D NAND3X1
*I *1335:AN I *C 43.645 34.075 *L 0.00181 *D NAND4BBXL
*I *1217:B I *C 41.035 36.975 *L 0.0028 *D NOR2BX1
*I *940:A I *C 37.265 41.905 *L 0.00178 *D AND3X1
*I *1211:A I *C 37.555 47.415 *L 0.00273 *D CLKINVX1
*I *941:A I *C 40.745 47.125 *L 0.00178 *D AND3X1
*I *1195:B I *C 32.625 49.445 *L 0.0028 *D NOR2X1
*I *1196:A I *C 25.665 49.735 *L 0.00178 *D AND2X1
*I *1386:SI I *C 14.645 39.295 *L 0.00172 *D SDFFQX1
*I *1388:A1 I *C 14.645 36.975 *L 0.00168 *D AO22XL
*I *1385:Q O *C 18.125 28.275 *L 0 *D SDFFQX1

*CAP
1 *28:2 2.52156e-05
2 *28:3 2.52156e-05
3 *28:4 0.000200595
4 *28:5 0.000200595
5 *28:6 5.04313e-05
6 *28:7 0.000277372
7 *28:9 0.000226941
8 *28:11 0.000250744
9 *28:12 0.000677008
10 *28:13 0.000426264
11 *28:15 0.000327803
12 *28:16 0.000327803
13 *28:17 0.00040119
14 *28:18 0.000426264
15 *28:20 2.50744e-05
16 *28:21 0.000579959
17 *28:22 2.52156e-05
18 *28:23 0.000579959
19 *28:24 0.000302587
20 *28:25 0.000250744
21 *28:26 0.000277372
22 *28:27 5.01487e-05
23 *28:28 0.000275818
24 *28:29 2.50744e-05
25 *28:30 5.01487e-05
26 *28:31 2.50744e-05
27 *28:32 0.000176509
28 *28:33 2.50744e-05
29 *28:35 0.00042139
30 *28:36 0.000176509
31 *28:38 0.00119527
32 *28:41 0.000773877
33 *28:44 0.000723079
34 *28:45 0.000883763
35 *28:47 0.00076325
36 *28:49 0.000602566
37 *28:50 0.000244382
38 *28:51 0.000244382

*RES
1 *28:52 *1385:Q 1.4
2 *28:51 *28:52 1.4
3 *28:50 *28:51 1.4914
4 *28:49 *28:50 1.4
5 *28:47 *28:49 3.7285
6 *28:47 *1388:A1 1.4
7 *28:45 *28:47 0.994266
8 *28:45 *1386:SI 1.4
9 *28:44 *28:45 4.4742
10 *28:41 *28:44 1.4
11 *28:40 *1196:A 1.4
12 *28:39 *1195:B 1.4
13 *28:38 *28:41 4.72276
14 *28:38 *28:40 1.4
15 *28:36 *28:39 1.4
16 *28:35 *28:38 2.11281
17 *28:33 *941:A 1.4
18 *28:32 *28:36 0.86998
19 *28:31 *28:35 1.4
20 *28:30 *1211:A 1.4
21 *28:29 *28:33 0.124289
22 *28:28 *28:32 1.4
23 *28:28 *28:31 0.124289
24 *28:27 *28:30 0.248577
25 *28:26 *28:29 1.4
26 *28:25 *28:28 1.24289
27 *28:24 *28:27 1.4
28 *28:24 *28:26 1.36711
29 *28:23 *28:25 1.4
30 *28:22 *28:24 0.124283
31 *28:21 *28:23 2.85851
32 *28:20 *28:22 1.4
33 *28:18 *28:21 1.4
34 *28:18 *28:20 0.124289
35 *28:17 *940:A 1.4
36 *28:17 *28:18 1.98862
37 *28:16 *28:17 1.4
38 *28:15 *28:16 1.61568
39 *28:13 *28:15 1.4
40 *28:12 *1217:B 1.4
41 *28:12 *28:13 2.11291
42 *28:11 *28:12 1.24289
43 *28:9 *28:11 1.4
44 *28:8 *1335:AN 1.4
45 *28:7 *28:9 1.11855
46 *28:7 *28:8 1.4
47 *28:6 *28:7 0.248566
48 *28:5 *28:6 1.4
49 *28:4 *28:5 0.994308
50 *28:3 *28:4 1.4
51 *28:2 *28:3 0.124283
52 *28:1 *28:2 1.4
53 *1336:A *28:1 1.4
*END

*D_NET *29 0.0312054

*CONN
*I *1174:B1 I *C 5.945 80.765 *L 0.00283 *D AOI22X1
*I *1212:A I *C 8.845 80.765 *L 0.00521 *D CLKINVX2
*I *1205:A I *C 15.225 83.665 *L 0.00228 *D CLKAND2X2
*I *1051:A0 I *C 18.36 83.9675 *L 0.00263 *D AOI211X1
*I *1038:A0 I *C 26.19 83.9675 *L 0.00263 *D AOI211X1
*I *1118:A0 I *C 27.115 68.295 *L 0.00265 *D AOI21X1
*I *1119:S0 I *C 28.275 65.395 *L 0.00372 *D MXI2XL
*I *1186:B1 I *C 40.165 73.515 *L 0.00283 *D AOI22X1
*I *1129:A I *C 29.435 59.885 *L 0.00162 *D NOR2XL
*I *1207:A I *C 41.325 78.735 *L 0.00267 *D NAND2X1
*I *1121:S0 I *C 21.025 54.955 *L 0.00372 *D MXI2XL
*I *1120:S0 I *C 13.195 54.955 *L 0.00372 *D MXI2XL
*I *1325:A I *C 31.465 52.345 *L 0.00157 *D NAND2XL
*I *1193:B I *C 40.745 52.345 *L 0.00167 *D NAND2XL
*I *1331:B I *C 43.355 47.415 *L 0.00284 *D NAND2BX1
*I *1194:B I *C 40.745 34.075 *L 0.00171 *D NOR2XL
*I *1329:A I *C 34.945 33.785 *L 0.00162 *D NOR2XL
*I *1116:S0 I *C 29.145 36.685 *L 0.00372 *D MXI2XL
*I *1117:S0 I *C 25.085 39.295 *L 0.00372 *D MXI2XL
*I *1385:SI I *C 11.455 28.855 *L 0.00172 *D SDFFQX1
*I *1389:A1 I *C 8.845 36.975 *L 0.00168 *D AO22XL
*I *1384:Q O *C 5.945 33.785 *L 0 *D SDFFHQX4

*CAP
1 *29:2 0.000203807
2 *29:3 0.000203807
3 *29:4 0.000231244
4 *29:5 0.000231244
5 *29:7 0.000448376
6 *29:8 0.000672564
7 *29:9 0.000776629
8 *29:10 2.10222e-05
9 *29:11 0.000552441
10 *29:12 1.08736e-06
11 *29:13 2.10222e-05
12 *29:14 0.00134695
13 *29:15 5.07432e-06
14 *29:17 6.01495e-06
15 *29:18 0.00134566
16 *29:19 3.98697e-06
17 *29:20 4.72603e-06
18 *29:21 7.30143e-05
19 *29:24 0.000194705
20 *29:25 0.000219043
21 *29:26 2.56639e-05
22 *29:27 9.73524e-05
23 *29:28 0.000282303
24 *29:29 2.56639e-05
25 *29:30 0.000436287
26 *29:31 0.000795582
27 *29:33 0.000436287
28 *29:34 2.43381e-05
29 *29:35 0.000513279
30 *29:36 0.000876172
31 *29:37 2.43381e-05
32 *29:38 7.30143e-05
33 *29:39 0.000876172
34 *29:41 0.000340733
35 *29:42 0.000460833
36 *29:44 0.000267719
37 *29:45 2.56639e-05
38 *29:46 0.000460833
39 *29:48 0.000410623
40 *29:49 2.56639e-05
41 *29:50 9.88161e-05
42 *29:51 0.000410623
43 *29:53 9.88161e-05
44 *29:54 0.000194705
45 *29:56 0.000908803
46 *29:58 0.000256345
47 *29:59 0.00127137
48 *29:60 0.000256345
49 *29:62 0.000557273
50 *29:63 0.000100863
51 *29:66 0.000907763
52 *29:68 0.000832116
53 *29:69 2.53691e-05
54 *29:70 2.52156e-05
55 *29:71 2.53691e-05
56 *29:72 2.53691e-05
57 *29:73 0.000476413
58 *29:74 2.53691e-05
59 *29:76 0.000476413
60 *29:78 0.000226941
61 *29:79 0.000201725
62 *29:80 2.52156e-05
63 *29:81 7.52231e-05
64 *29:82 0.0010782
65 *29:83 7.52231e-05
66 *29:84 0.00110327
67 *29:87 2.50744e-05
68 *29:88 0.000479097
69 *29:89 0.000504313
70 *29:90 0.000300892
71 *29:91 2.52156e-05
72 *29:92 0.000300892
73 *29:94 0.000529528
74 *29:96 0.000845205
75 *29:97 5.01487e-05
76 *29:98 0.000315677
77 *29:99 5.01487e-05
78 *29:100 0.000200855
79 *29:102 0.000140599
80 *29:103 6.02566e-05
81 *29:104 2.03652e-05
82 *29:105 0.000977529
83 *29:106 2.03652e-05
84 *29:107 0.000977529
85 *29:109 0.000602566
86 *29:111 8.03421e-05
87 *29:112 0.000522223
88 *29:113 0.000183287
89 *29:115 0.000386939
90 *29:116 4.0171e-05
91 *29:117 0.000203652
92 *29:118 4.0171e-05
93 *29:119 0.000261112
94 *29:121 0.000261112

*RES
1 *29:121 *1384:Q 1.4
2 *29:119 *29:121 1.61568
3 *29:118 *1389:A1 1.4
4 *29:117 *29:119 1.4
5 *29:116 *29:118 0.248567
6 *29:115 *29:117 1.24283
7 *29:115 *29:116 1.4
8 *29:113 *29:115 1.11855
9 *29:112 *1385:SI 1.4
10 *29:111 *29:113 1.4
11 *29:109 *29:112 3.23136
12 *29:109 *29:111 0.497133
13 *29:108 *1117:S0 1.4
14 *29:107 *29:109 1.4
15 *29:106 *29:108 1.4
16 *29:105 *29:107 5.96559
17 *29:104 *29:106 0.124283
18 *29:103 *29:105 1.4
19 *29:102 *29:104 1.4
20 *29:100 *29:103 0.37285
21 *29:100 *29:102 0.869983
22 *29:99 *1116:S0 1.4
23 *29:98 *29:100 1.4
24 *29:97 *29:99 0.248577
25 *29:96 *29:98 1.61568
26 *29:96 *29:97 1.4
27 *29:94 *29:96 2.60994
28 *29:93 *1329:A 1.4
29 *29:92 *29:94 1.4
30 *29:91 *29:93 1.4
31 *29:90 *29:92 1.49146
32 *29:89 *29:91 0.124283
33 *29:89 *29:90 1.4
34 *29:88 *29:89 2.36138
35 *29:87 *29:88 1.4
36 *29:84 *29:87 0.124289
37 *29:84 *1194:B 1.4
38 *29:83 *1331:B 1.4
39 *29:82 *29:84 5.34441
40 *29:81 *29:83 0.372866
41 *29:80 *29:82 1.4
42 *29:79 *29:81 1.4
43 *29:78 *29:80 0.124283
44 *29:78 *29:79 0.994263
45 *29:76 *29:78 1.4
46 *29:74 *1193:B 1.4
47 *29:73 *29:76 2.36148
48 *29:72 *1325:A 1.4
49 *29:71 *29:74 0.124286
50 *29:70 *29:73 1.4
51 *29:69 *29:72 0.124286
52 *29:68 *29:71 1.4
53 *29:68 *29:70 0.124283
54 *29:66 *29:69 1.4
55 *29:66 *29:68 3.97705
56 *29:65 *1120:S0 1.4
57 *29:63 *29:66 0.497132
58 *29:62 *29:65 1.4
59 *29:61 *1121:S0 1.4
60 *29:60 *29:63 1.4
61 *29:59 *29:62 3.35564
62 *29:59 *29:61 1.4
63 *29:58 *29:60 1.24283
64 *29:56 *29:59 3.97705
65 *29:56 *29:58 1.4
66 *29:55 *1207:A 1.4
67 *29:54 *29:56 0.994261
68 *29:53 *29:55 1.4
69 *29:51 *29:54 1.4
70 *29:50 *29:53 0.497132
71 *29:49 *1129:A 1.4
72 *29:48 *29:51 1.98852
73 *29:46 *29:50 1.4
74 *29:45 *29:49 0.124283
75 *29:44 *29:48 1.4
76 *29:42 *1186:B1 1.4
77 *29:42 *29:46 2.2371
78 *29:41 *29:45 1.4
79 *29:41 *29:44 1.36711
80 *29:40 *1119:S0 1.4
81 *29:39 *29:42 1.4
82 *29:38 *29:41 0.372848
83 *29:37 *29:40 1.4
84 *29:36 *29:39 4.47418
85 *29:35 *29:38 1.4
86 *29:34 *29:37 0.124283
87 *29:33 *29:36 1.4
88 *29:31 *29:35 2.48565
89 *29:31 *29:34 1.4
90 *29:30 *29:33 2.11281
91 *29:29 *1118:A0 1.4
92 *29:28 *29:31 1.36711
93 *29:27 *29:30 1.4
94 *29:26 *29:29 0.124283
95 *29:25 *29:28 1.4
96 *29:25 *29:27 0.497131
97 *29:24 *29:26 1.4
98 *29:24 *29:25 0.621413
99 *29:21 *29:24 0.372848
100 *29:20 *1038:A0 1.4
101 *29:19 *1051:A0 1.4
102 *29:18 *29:21 1.4
103 *29:17 *29:20 0.023572
104 *29:15 *29:19 0.0235709
105 *29:14 *29:18 6.5871
106 *29:14 *29:17 0.00642873
107 *29:13 *1205:A 1.4
108 *29:12 *29:15 0.00642841
109 *29:11 *29:14 1.4
110 *29:10 *29:13 0.124283
111 *29:9 *29:12 1.4
112 *29:9 *29:11 3.35564
113 *29:8 *29:10 1.4
114 *29:8 *29:9 1.36711
115 *29:7 *29:8 2.73423
116 *29:5 *29:7 1.4
117 *29:4 *1212:A 1.4
118 *29:4 *29:5 1.36711
119 *29:3 *29:4 1.4
120 *29:2 *29:3 1.24283
121 *29:1 *29:2 1.4
122 *1174:B1 *29:1 1.4
*END

*D_NET *30 0.00718521

*CONN
*I *1398:A I *C 70.615 23.345 *L 0.00162 *D NOR2XL
*I *1410:A I *C 66.265 21.315 *L 0.00273 *D CLKINVX1
*I *1409:A I *C 62.785 23.635 *L 0.00157 *D NAND2XL
*I *1368:SI I *C 58.435 15.805 *L 0.00172 *D SDFFQX1
*I *1426:AN I *C 54.375 16.095 *L 0.00178 *D NAND2BX1
*I *1422:B I *C 51.765 21.025 *L 0.00167 *D NAND2XL
*I *1414:Q O *C 43.935 16.385 *L 0 *D SDFFQX1
*I *1421:A2 I *C 37.845 21.025 *L 0.00281 *D OAI32X1

*CAP
1 *30:1 2.01377e-05
2 *30:2 2.01377e-05
3 *30:3 0.0003116
4 *30:4 0.000353147
5 *30:5 0.000120826
6 *30:6 4.15467e-05
7 *30:7 0.000120826
8 *30:8 4.02754e-05
9 *30:10 4.02754e-05
10 *30:11 0.000207733
11 *30:12 0.00056088
12 *30:14 0.000353147
13 *30:16 0.000543719
14 *30:17 0.000543719
15 *30:18 0.000290827
16 *30:19 4.15467e-05
17 *30:20 0.000431918
18 *30:22 2.01377e-05
19 *30:23 0.000182638
20 *30:25 2.01377e-05
21 *30:26 5.30474e-05
22 *30:28 0.000318284
23 *30:29 0.000265237
24 *30:30 0.000483082
25 *30:32 0.000483082
26 *30:33 0.000265237
27 *30:34 0.000247555
28 *30:35 1.76825e-05
29 *30:36 0.00037573
30 *30:38 0.00037573
31 *30:39 1.76825e-05
32 *30:40 1.76825e-05

*RES
1 *30:40 *1421:A2 1.4
2 *30:39 *30:40 0.124284
3 *30:38 *30:39 1.4
4 *30:36 *30:38 2.61006
5 *30:35 *1414:Q 1.4
6 *30:34 *30:36 1.4
7 *30:33 *30:35 0.124284
8 *30:33 *30:34 1.73997
9 *30:32 *30:33 1.4
10 *30:30 *30:32 3.3558
11 *30:29 *1422:B 1.4
12 *30:28 *30:30 1.4
13 *30:28 *30:29 1.86425
14 *30:26 *30:28 0.372851
15 *30:25 *1426:AN 1.4
16 *30:23 *30:26 1.4
17 *30:22 *30:25 0.124288
18 *30:21 *1368:SI 1.4
19 *30:20 *30:23 1.1186
20 *30:20 *30:22 1.4
21 *30:19 *30:21 1.4
22 *30:18 *30:20 1.49147
23 *30:18 *30:19 0.248578
24 *30:17 *30:18 1.4
25 *30:16 *30:17 3.35578
26 *30:14 *30:16 1.4
27 *30:13 *1409:A 1.4
28 *30:12 *30:14 2.11291
29 *30:12 *30:13 1.4
30 *30:11 *30:12 1.24289
31 *30:10 *30:11 1.4
32 *30:8 *30:10 0.248577
33 *30:7 *1410:A 1.4
34 *30:6 *30:8 1.4
35 *30:5 *30:7 0.74573
36 *30:4 *30:6 0.248578
37 *30:4 *30:5 1.4
38 *30:3 *30:4 1.86433
39 *30:2 *30:3 1.4
40 *30:1 *30:2 0.124288
41 *1398:A *30:1 1.4
*END

*D_NET *31 0.0121589

*CONN
*I *1400:A0 I *C 74.36 20.9525 *L 0.00161 *D OAI211XL
*I *1407:B I *C 71.485 26.245 *L 0.00167 *D NAND2XL
*I *1402:A0 I *C 66.265 23.635 *L 0.00265 *D OAI22X1
*I *1431:A I *C 61.625 26.535 *L 0.00273 *D INVX1
*I *1404:A I *C 56.405 26.245 *L 0.00178 *D AND2X1
*I *1425:B0 I *C 50.025 26.535 *L 0.00262 *D OAI22X1
*I *1419:B I *C 60.465 18.415 *L 0.00175 *D OR4XL
*I *1429:A I *C 46.255 26.535 *L 0.00162 *D NOR2XL
*I *1426:B I *C 55.245 16.095 *L 0.00284 *D NAND2BX1
*I *1414:SI I *C 50.605 15.805 *L 0.00172 *D SDFFQX1
*I *1421:A1 I *C 37.555 21.025 *L 0.00271 *D OAI32X1
*I *1412:Q O *C 35.235 16.385 *L 0 *D SDFFQX1

*CAP
1 *31:1 1.73601e-06
2 *31:2 6.59684e-06
3 *31:3 4.86083e-06
4 *31:4 0.000228507
5 *31:5 0.000228507
6 *31:6 0.000342341
7 *31:7 0.000363215
8 *31:8 2.08733e-05
9 *31:9 0.000353147
10 *31:10 2.61838e-05
11 *31:11 0.000353147
12 *31:12 2.61838e-05
13 *31:13 0.000225193
14 *31:15 6.40911e-05
15 *31:16 0.000483305
16 *31:18 0.000418941
17 *31:20 0.000322204
18 *31:21 0.000890251
19 *31:22 0.000394693
20 *31:23 2.16089e-05
21 *31:24 0.00104009
22 *31:25 0.000415467
23 *31:26 2.16089e-05
24 *31:27 4.32178e-05
25 *31:28 0.000896586
26 *31:29 0.00018124
27 *31:30 2.07733e-05
28 *31:32 4.32178e-05
29 *31:33 2.50744e-05
30 *31:34 0.000327803
31 *31:35 0.00018124
32 *31:36 4.02754e-05
33 *31:38 2.50744e-05
34 *31:39 2.50744e-05
35 *31:40 0.000394693
36 *31:41 4.02754e-05
37 *31:43 2.50744e-05
38 *31:44 0.000711219
39 *31:47 2.01377e-05
40 *31:48 0.00112166
41 *31:49 2.01377e-05
42 *31:50 3.53649e-05
43 *31:51 0.000805136
44 *31:53 3.53649e-05
45 *31:54 1.76825e-05
46 *31:56 0.00028292
47 *31:57 0.000265237
48 *31:58 0.000143135
49 *31:60 0.000143135
50 *31:61 1.76825e-05
51 *31:62 1.76825e-05

*RES
1 *31:62 *1412:Q 1.4
2 *31:61 *31:62 0.124284
3 *31:60 *31:61 1.4
4 *31:58 *31:60 0.99431
5 *31:57 *1421:A1 1.4
6 *31:56 *31:58 1.4
7 *31:56 *31:57 1.86425
8 *31:54 *31:56 0.124284
9 *31:53 *1414:SI 1.4
10 *31:51 *31:54 1.4
11 *31:50 *31:53 0.248567
12 *31:49 *1426:B 1.4
13 *31:48 *31:51 5.59299
14 *31:48 *31:50 1.4
15 *31:47 *31:49 0.124288
16 *31:44 *31:48 1.98862
17 *31:44 *31:47 1.4
18 *31:43 *1429:A 1.4
19 *31:41 *1419:B 1.4
20 *31:40 *31:44 2.36149
21 *31:39 *31:43 0.124289
22 *31:38 *1425:B0 1.4
23 *31:36 *31:41 0.248577
24 *31:35 *31:40 1.4
25 *31:34 *31:39 1.4
26 *31:33 *31:38 0.124289
27 *31:32 *1404:A 1.4
28 *31:30 *31:36 1.4
29 *31:29 *31:35 1.11859
30 *31:28 *31:34 1.61568
31 *31:28 *31:33 1.4
32 *31:27 *31:32 0.248567
33 *31:26 *1431:A 1.4
34 *31:25 *31:30 0.124289
35 *31:25 *31:29 1.4
36 *31:24 *31:28 2.73431
37 *31:24 *31:27 1.4
38 *31:23 *31:26 0.124283
39 *31:22 *31:25 2.36149
40 *31:21 *31:24 2.2372
41 *31:21 *31:23 1.4
42 *31:20 *31:22 1.4
43 *31:18 *31:21 1.98862
44 *31:16 *31:20 1.98861
45 *31:16 *1402:A0 1.4
46 *31:15 *31:18 1.4
47 *31:14 *1407:B 1.4
48 *31:13 *31:16 0.994306
49 *31:13 *31:15 0.372853
50 *31:12 *31:14 1.4
51 *31:11 *31:13 1.4
52 *31:10 *31:12 0.124289
53 *31:9 *31:11 2.11291
54 *31:8 *31:10 1.4
55 *31:7 *31:9 1.4
56 *31:7 *31:8 0.124286
57 *31:6 *31:7 2.1129
58 *31:5 *31:6 1.4
59 *31:4 *31:5 1.36718
60 *31:3 *31:4 1.4
61 *31:2 *31:3 0.0300006
62 *31:1 *31:2 0.0107145
63 *1400:A0 *31:1 1.4
*END

*D_NET *32 0.0022824

*CONN
*I *1425:A0 I *C 48.865 26.245 *L 0.00265 *D OAI22X1
*I *925:Q O *C 42.485 26.825 *L 0 *D SDFFQX1
*I *1412:SI I *C 41.905 15.805 *L 0.00172 *D SDFFQX1

*CAP
1 *32:1 2.13784e-05
2 *32:2 2.13784e-05
3 *32:3 0.000393622
4 *32:4 0.000429406
5 *32:5 7.15271e-05
6 *32:6 3.57838e-05
7 *32:7 7.15271e-05
8 *32:8 0.000618886
9 *32:10 0.000618886

*RES
1 *32:10 *1412:SI 1.4
2 *32:8 *32:10 4.34992
3 *32:7 *925:Q 1.4
4 *32:6 *32:8 1.4
5 *32:5 *32:7 0.372863
6 *32:4 *32:6 0.248578
7 *32:4 *32:5 1.4
8 *32:3 *32:4 2.73435
9 *32:2 *32:3 1.4
10 *32:1 *32:2 0.124286
11 *1425:A0 *32:1 1.4
*END

*D_NET *33 0.000426577

*CONN
*I *1419:D I *C 61.045 18.415 *L 0.00161 *D OR4XL
*I *1357:Y O *C 63.8625 18.415 *L 0 *D INVXL

*CAP
1 *33:2 0.000207733
2 *33:3 0.000207733
3 *33:4 5.55523e-06
4 *33:5 5.55523e-06

*RES
1 *33:5 *1357:Y 1.4
2 *33:4 *33:5 0.0342864
3 *33:3 *33:4 1.4
4 *33:2 *33:3 1.24289
5 *33:1 *33:2 1.4
6 *1419:D *33:1 1.4
*END

*D_NET *34 0.00193218

*CONN
*I *1420:A1 I *C 45.675 21.605 *L 0.0028 *D AOI22X1
*I *1421:B0 I *C 39.005 21.315 *L 0.00272 *D OAI32X1
*I *925:SI I *C 35.815 26.245 *L 0.00172 *D SDFFQX1
*I *1383:Q O *C 35.235 23.055 *L 0 *D SDFFQX1

*CAP
1 *34:1 1.76825e-05
2 *34:2 1.76825e-05
3 *34:3 0.000411514
4 *34:4 0.000483082
5 *34:6 7.15677e-05
6 *34:8 0.000106095
7 *34:9 0.000106095
8 *34:10 0.000125243
9 *34:11 0.000161027
10 *34:12 0.000198203
11 *34:13 3.57838e-05
12 *34:14 0.000198203

*RES
1 *34:15 *1383:Q 1.4
2 *34:14 *925:SI 1.4
3 *34:13 *34:15 1.4
4 *34:12 *34:14 1.36712
5 *34:11 *34:13 0.248578
6 *34:11 *34:12 1.4
7 *34:10 *34:11 0.870021
8 *34:9 *34:10 1.4
9 *34:8 *34:9 0.745701
10 *34:6 *34:8 1.4
11 *34:5 *1421:B0 1.4
12 *34:4 *34:6 0.497155
13 *34:4 *34:5 1.4
14 *34:3 *34:4 2.85864
15 *34:2 *34:3 1.4
16 *34:1 *34:2 0.124284
17 *1420:A1 *34:1 1.4
*END

*D_NET *35 0.000969502

*CONN
*I *1425:B1 I *C 49.735 26.245 *L 0.00282 *D OAI22X1
*I *1432:Y O *C 48.3675 28.565 *L 0 *D INVX1

*CAP
1 *35:2 2.52156e-05
2 *35:3 2.52156e-05
3 *35:4 0.000250744
4 *35:5 0.000250744
5 *35:6 0.000151294
6 *35:7 0.000151294
7 *35:8 5.01487e-05
8 *35:9 5.74981e-05
9 *35:10 7.34938e-06

*RES
1 *35:10 *1432:Y 1.4
2 *35:9 *35:10 0.0364294
3 *35:8 *35:9 0.248577
4 *35:7 *35:8 1.4
5 *35:6 *35:7 0.745697
6 *35:5 *35:6 1.4
7 *35:4 *35:5 1.24289
8 *35:3 *35:4 1.4
9 *35:2 *35:3 0.124283
10 *35:1 *35:2 1.4
11 *1425:B1 *35:1 1.4
*END

*D_NET *36 0.00557573

*CONN
*I *1421:B1 I *C 38.425 21.025 *L 0.00282 *D OAI32X1
*I *1403:A I *C 53.795 26.535 *L 0.00162 *D NOR2XL
*I *1425:A1 I *C 49.155 26.245 *L 0.00277 *D OAI22X1
*I *1431:Y O *C 61.9975 26.535 *L 0 *D INVX1
*I *1409:B I *C 63.365 23.635 *L 0.00167 *D NAND2XL

*CAP
1 *36:1 0.000347055
2 *36:2 0.000347055
3 *36:3 0.000932978
4 *36:4 0.00134175
5 *36:5 0.00114192
6 *36:6 2.50744e-05
7 *36:7 0.000864067
8 *36:9 2.50744e-05
9 *36:10 6.33364e-06
10 *36:11 0.000130919
11 *36:14 6.33364e-06
12 *36:15 0.000203584
13 *36:17 0.000203584

*RES
1 *36:17 *1409:B 1.4
2 *36:15 *36:17 1.24288
3 *36:14 *1431:Y 1.4
4 *36:11 *36:15 1.4
5 *36:10 *36:14 0.0364279
6 *36:9 *1425:A1 1.4
7 *36:8 *1403:A 1.4
8 *36:7 *36:11 0.621444
9 *36:7 *36:10 1.4
10 *36:6 *36:9 0.124289
11 *36:5 *36:8 1.4
12 *36:5 *36:7 3.48008
13 *36:4 *36:6 1.4
14 *36:4 *36:5 1.98856
15 *36:3 *36:4 4.59847
16 *36:2 *36:3 1.4
17 *36:1 *36:2 2.3614
18 *1421:B1 *36:1 1.4
*END

*D_NET *37 0.00131227

*CONN
*I *1415:A1 I *C 43.065 18.415 *L 0.00266 *D OAI221X1
*I *1429:Y O *C 45.675 25.955 *L 0 *D NOR2XL

*CAP
1 *37:1 1.76825e-05
2 *37:2 1.76825e-05
3 *37:3 7.15677e-05
4 *37:4 7.15677e-05
5 *37:5 0.000477427
6 *37:6 0.000477427
7 *37:7 8.94596e-05
8 *37:8 8.94596e-05

*RES
1 *37:9 *1429:Y 1.4
2 *37:8 *37:9 1.4
3 *37:7 *37:8 0.621444
4 *37:6 *37:7 1.4
5 *37:5 *37:6 3.35566
6 *37:4 *37:5 1.4
7 *37:3 *37:4 0.497155
8 *37:2 *37:3 1.4
9 *37:1 *37:2 0.124284
10 *1415:A1 *37:1 1.4
*END

*D_NET *38 0.00117965

*CONN
*I *1420:B1 I *C 46.255 21.315 *L 0.00283 *D AOI22X1
*I *1428:Y O *C 54.8725 21.025 *L 0 *D INVXL

*CAP
1 *38:2 0.000564131
2 *38:3 0.000564131
3 *38:4 2.01377e-05
4 *38:5 2.5693e-05
5 *38:6 5.55523e-06

*RES
1 *38:6 *1428:Y 1.4
2 *38:5 *38:6 0.0342864
3 *38:4 *38:5 0.124288
4 *38:3 *38:4 1.4
5 *38:2 *38:3 3.72866
6 *38:1 *38:2 1.4
7 *1420:B1 *38:1 1.4
*END

*D_NET *39 0.00168713

*CONN
*I *1428:A I *C 55.235 21.0875 *L 0.00163 *D INVXL
*I *1424:A I *C 56.115 18.415 *L 0.00173 *D OR2X1
*I *1419:A I *C 59.885 18.415 *L 0.00181 *D OR4XL
*I *1430:Y O *C 59.885 21.895 *L 0 *D NAND2BX1

*CAP
1 *39:1 6.94404e-07
2 *39:2 5.20803e-06
3 *39:3 4.51363e-06
4 *39:4 2.07733e-05
5 *39:5 2.07733e-05
6 *39:6 0.000161102
7 *39:7 0.000161102
8 *39:8 4.15467e-05
9 *39:9 0.0003116
10 *39:10 0.0003116
11 *39:11 2.01377e-05
12 *39:12 4.15467e-05
13 *39:13 2.01377e-05
14 *39:14 2.01377e-05
15 *39:15 0.000221515
16 *39:16 2.01377e-05
17 *39:18 0.000221515
18 *39:20 4.15467e-05
19 *39:21 4.15467e-05

*RES
1 *39:22 *1430:Y 1.4
2 *39:21 *39:22 1.4
3 *39:20 *39:21 0.248578
4 *39:18 *39:20 1.4
5 *39:16 *1419:A 1.4
6 *39:15 *39:18 1.36717
7 *39:14 *1424:A 1.4
8 *39:13 *39:16 0.124288
9 *39:12 *39:15 1.4
10 *39:11 *39:14 0.124288
11 *39:10 *39:13 1.4
12 *39:10 *39:12 0.248578
13 *39:9 *39:11 1.4
14 *39:9 *39:10 1.61575
15 *39:8 *39:9 0.248578
16 *39:7 *39:8 1.4
17 *39:6 *39:7 0.994306
18 *39:5 *39:6 1.4
19 *39:4 *39:5 0.124289
20 *39:3 *39:4 1.4
21 *39:2 *39:3 0.0278577
22 *39:1 *39:2 0.0042858
23 *1428:A *39:1 1.4
*END

*D_NET *40 0.00189453

*CONN
*I *1418:A I *C 43.065 21.025 *L 0.00157 *D NAND2XL
*I *1420:A0 I *C 45.385 21.025 *L 0.00264 *D AOI22X1
*I *1422:A I *C 52.345 21.025 *L 0.00157 *D NAND2XL
*I *1427:Y O *C 57.275 20.735 *L 0 *D NOR2XL

*CAP
1 *40:2 0.000143135
2 *40:3 0.000573982
3 *40:4 0.000783993
4 *40:6 0.000353147
5 *40:9 2.01377e-05
6 *40:11 2.01377e-05

*RES
1 *40:11 *1427:Y 1.4
2 *40:9 *40:11 0.124288
3 *40:7 *1422:A 1.4
4 *40:6 *40:9 1.4
5 *40:5 *1420:A0 1.4
6 *40:4 *40:7 1.4
7 *40:4 *40:6 2.11291
8 *40:3 *40:5 1.4
9 *40:3 *40:4 2.98293
10 *40:2 *40:3 0.99431
11 *40:1 *40:2 1.4
12 *1418:A *40:1 1.4
*END

*D_NET *41 0.00119185

*CONN
*I *1416:B1 I *C 47.995 18.125 *L 0.00274 *D OAI221X1
*I *1424:B I *C 55.245 18.125 *L 0.00165 *D OR2X1
*I *1426:Y O *C 55.245 16.675 *L 0 *D NAND2BX1

*CAP
1 *41:1 1.76825e-05
2 *41:2 1.76825e-05
3 *41:3 0.000477553
4 *41:4 0.000477553
5 *41:5 0.000100689
6 *41:6 2.01377e-05
7 *41:7 8.05509e-05

*RES
1 *41:7 *1426:Y 1.4
2 *41:6 *1424:B 1.4
3 *41:5 *41:7 0.497153
4 *41:5 *41:6 0.124288
5 *41:4 *41:5 1.4
6 *41:3 *41:4 3.10722
7 *41:2 *41:3 1.4
8 *41:1 *41:2 0.124284
9 *1416:B1 *41:1 1.4
*END

*D_NET *42 0.00120618

*CONN
*I *1417:A1 I *C 52.055 18.415 *L 0.00278 *D OAI211X1
*I *1423:A I *C 49.735 21.315 *L 0.00273 *D INVX1
*I *1425:Y O *C 49.445 25.665 *L 0 *D OAI22X1

*CAP
1 *42:1 8.84123e-05
2 *42:2 8.84123e-05
3 *42:3 0.000143135
4 *42:4 0.000143135
5 *42:5 8.84123e-05
6 *42:6 0.000353649
7 *42:7 0.000265237
8 *42:9 1.78919e-05
9 *42:10 1.78919e-05

*RES
1 *42:11 *1425:Y 1.4
2 *42:10 *42:11 1.4
3 *42:9 *42:10 0.124289
4 *42:7 *42:9 1.4
5 *42:6 *1423:A 1.4
6 *42:6 *42:7 1.86425
7 *42:5 *42:6 0.621418
8 *42:4 *42:5 1.4
9 *42:3 *42:4 0.99431
10 *42:2 *42:3 1.4
11 *42:1 *42:2 0.621418
12 *1417:A1 *42:1 1.4
*END

*D_NET *43 0.000755352

*CONN
*I *1416:A1 I *C 47.415 18.415 *L 0.00266 *D OAI221X1
*I *1423:Y O *C 49.3625 21.315 *L 0 *D INVX1

*CAP
1 *43:1 0.00021219
2 *43:2 0.00021219
3 *43:3 0.000125243
4 *43:4 0.000125243
5 *43:5 3.53649e-05
6 *43:6 4.02429e-05
7 *43:7 4.87792e-06

*RES
1 *43:7 *1423:Y 1.4
2 *43:6 *43:7 0.0342851
3 *43:5 *43:6 0.248567
4 *43:4 *43:5 1.4
5 *43:3 *43:4 0.870021
6 *43:2 *43:3 1.4
7 *43:1 *43:2 1.4914
8 *1416:A1 *43:1 1.4
*END

*D_NET *44 0.00191837

*CONN
*I *1415:B1 I *C 42.485 18.125 *L 0.00274 *D OAI221X1
*I *1417:B0 I *C 52.345 18.415 *L 0.0028 *D OAI211X1
*I *1424:Y O *C 56.695 18.705 *L 0 *D OR2X1

*CAP
1 *44:1 1.76825e-05
2 *44:2 1.76825e-05
3 *44:3 0.000609766
4 *44:4 0.000921366
5 *44:5 0.0003116
6 *44:7 2.01377e-05
7 *44:9 2.01377e-05

*RES
1 *44:9 *1424:Y 1.4
2 *44:7 *44:9 0.124288
3 *44:6 *1417:B0 1.4
4 *44:5 *44:7 1.4
5 *44:4 *44:6 1.4
6 *44:4 *44:5 1.86433
7 *44:3 *44:4 4.22582
8 *44:2 *44:3 1.4
9 *44:1 *44:2 0.124284
10 *1415:B1 *44:1 1.4
*END

*D_NET *45 0.00153326

*CONN
*I *1415:A0 I *C 43.645 18.415 *L 0.00262 *D OAI221X1
*I *1416:A0 I *C 46.835 18.415 *L 0.00262 *D OAI221X1
*I *1417:A0 I *C 51.475 18.415 *L 0.00267 *D OAI211X1
*I *1422:Y O *C 51.765 21.605 *L 0 *D NAND2XL

*CAP
1 *45:1 1.76825e-05
2 *45:2 1.76825e-05
3 *45:3 0.000196811
4 *45:4 0.000483082
5 *45:5 0.000322055
6 *45:6 1.76825e-05
7 *45:7 3.57838e-05
8 *45:8 1.76825e-05
9 *45:9 1.76825e-05
10 *45:10 0.000176825
11 *45:11 1.76825e-05
12 *45:13 0.000176825
13 *45:15 1.78919e-05
14 *45:16 1.78919e-05

*RES
1 *45:17 *1422:Y 1.4
2 *45:16 *45:17 1.4
3 *45:15 *45:16 0.124289
4 *45:13 *45:15 1.4
5 *45:11 *1417:A0 1.4
6 *45:10 *45:13 1.24284
7 *45:9 *1416:A0 1.4
8 *45:8 *45:11 0.124284
9 *45:7 *45:10 1.4
10 *45:6 *45:9 0.124284
11 *45:5 *45:8 1.4
12 *45:5 *45:7 0.248578
13 *45:4 *45:6 1.4
14 *45:4 *45:5 1.98862
15 *45:3 *45:4 1.36718
16 *45:2 *45:3 1.4
17 *45:1 *45:2 0.124284
18 *1415:A0 *45:1 1.4
*END

*D_NET *46 0.000642852

*CONN
*I *1418:B I *C 42.485 21.025 *L 0.00167 *D NAND2XL
*I *1421:Y O *C 38.135 20.155 *L 0 *D OAI32X1

*CAP
1 *46:1 3.53649e-05
2 *46:2 3.53649e-05
3 *46:3 0.000268379
4 *46:4 0.000268379
5 *46:5 1.76825e-05
6 *46:6 1.76825e-05

*RES
1 *46:6 *1421:Y 1.4
2 *46:5 *46:6 0.124284
3 *46:4 *46:5 1.4
4 *46:3 *46:4 1.86433
5 *46:2 *46:3 1.4
6 *46:1 *46:2 0.248567
7 *1418:B *46:1 1.4
*END

*D_NET *47 0.000675285

*CONN
*I *1416:B0 I *C 48.285 18.415 *L 0.00274 *D OAI221X1
*I *1420:Y O *C 45.965 21.605 *L 0 *D AOI22X1

*CAP
1 *47:2 7.15677e-05
2 *47:3 7.15677e-05
3 *47:4 0.000194507
4 *47:5 0.000194507
5 *47:6 7.15677e-05
6 *47:7 7.15677e-05

*RES
1 *47:8 *1420:Y 1.4
2 *47:7 *47:8 1.4
3 *47:6 *47:7 0.497155
4 *47:5 *47:6 1.4
5 *47:4 *47:5 1.36712
6 *47:3 *47:4 1.4
7 *47:2 *47:3 0.497155
8 *47:1 *47:2 1.4
9 *1416:B0 *47:1 1.4
*END

*D_NET *48 0.00154051

*CONN
*I *1417:C0 I *C 52.635 17.835 *L 0.00287 *D OAI211X1
*I *1416:C0 I *C 48.865 18.125 *L 0.00282 *D OAI221X1
*I *1419:Y O *C 59.32 18.6175 *L 0 *D OR4XL

*CAP
1 *48:1 2.01377e-05
2 *48:2 2.01377e-05
3 *48:3 0.000714704
4 *48:4 0.000477787
5 *48:5 0.000236917
6 *48:6 3.4373e-05
7 *48:8 3.54146e-05
8 *48:10 1.04161e-06

*RES
1 *48:10 *1419:Y 1.4
2 *48:8 *48:10 0.00642871
3 *48:7 *1416:C0 1.4
4 *48:6 *48:8 0.212147
5 *48:5 *48:7 1.4
6 *48:4 *48:6 1.4
7 *48:3 *48:5 1.61575
8 *48:3 *48:4 2.85864
9 *48:2 *48:3 1.4
10 *48:1 *48:2 0.124288
11 *1417:C0 *48:1 1.4
*END

*D_NET *49 0.000531731

*CONN
*I *1415:C0 I *C 41.615 18.125 *L 0.00282 *D OAI221X1
*I *1418:Y O *C 42.485 21.605 *L 0 *D NAND2XL

*CAP
1 *49:2 3.57838e-05
2 *49:3 3.57838e-05
3 *49:4 0.00021219
4 *49:5 0.00021219
5 *49:6 1.78919e-05
6 *49:7 1.78919e-05

*RES
1 *49:8 *1418:Y 1.4
2 *49:7 *49:8 1.4
3 *49:6 *49:7 0.124289
4 *49:5 *49:6 1.4
5 *49:4 *49:5 1.4914
6 *49:3 *49:4 1.4
7 *49:2 *49:3 0.248578
8 *49:1 *49:2 1.4
9 *1415:C0 *49:1 1.4
*END

*D_NET *50 0.000927267

*CONN
*I *1413:D I *C 52.055 13.195 *L 0.00183 *D SDFFQX1
*I *1417:Y O *C 52.925 18.995 *L 0 *D OAI211X1

*CAP
1 *50:2 1.93326e-05
2 *50:3 1.93326e-05
3 *50:4 0.000402754
4 *50:5 0.000402754
5 *50:6 4.15467e-05
6 *50:7 4.15467e-05

*RES
1 *50:8 *1417:Y 1.4
2 *50:7 *50:8 1.4
3 *50:6 *50:7 0.248578
4 *50:5 *50:6 1.4
5 *50:4 *50:5 2.48577
6 *50:3 *50:4 1.4
7 *50:2 *50:3 0.124289
8 *50:1 *50:2 1.4
9 *1413:D *50:1 1.4
*END

*D_NET *51 0.000424798

*CONN
*I *1414:D I *C 49.155 15.805 *L 0.00183 *D SDFFQX1
*I *1416:Y O *C 48.865 18.995 *L 0 *D OAI221X1

*CAP
1 *51:2 1.78919e-05
2 *51:3 1.78919e-05
3 *51:4 0.000194507
4 *51:5 0.000194507

*RES
1 *51:5 *1416:Y 1.4
2 *51:4 *51:5 1.36712
3 *51:3 *51:4 1.4
4 *51:2 *51:3 0.124289
5 *51:1 *51:2 1.4
6 *1414:D *51:1 1.4
*END

*D_NET *52 0.00053215

*CONN
*I *1412:D I *C 40.455 15.805 *L 0.00183 *D SDFFQX1
*I *1415:Y O *C 41.615 18.995 *L 0 *D OAI221X1

*CAP
1 *52:1 0.000194507
2 *52:2 0.000194507
3 *52:3 7.15677e-05
4 *52:4 7.15677e-05

*RES
1 *52:5 *1415:Y 1.4
2 *52:4 *52:5 1.4
3 *52:3 *52:4 0.497155
4 *52:2 *52:3 1.4
5 *52:1 *52:2 1.36712
6 *1412:D *52:1 1.4
*END

*D_NET *53 0.000955583

*CONN
*I *1406:B I *C 64.815 26.245 *L 0.00167 *D NAND2XL
*I *1402:B0 I *C 67.425 23.345 *L 0.00262 *D OAI22X1
*I *1411:Y O *C 67.3425 26.535 *L 0 *D CLKINVX1

*CAP
1 *53:1 6.11487e-05
2 *53:2 6.11487e-05
3 *53:3 0.00018696
4 *53:4 0.00018696
5 *53:5 0.000223722
6 *53:6 8.87187e-05
7 *53:7 0.000140964
8 *53:8 5.96107e-06

*RES
1 *53:8 *1411:Y 1.4
2 *53:7 *1402:B0 1.4
3 *53:6 *53:8 0.0342851
4 *53:5 *53:7 0.870018
5 *53:5 *53:6 0.497146
6 *53:4 *53:5 1.4
7 *53:3 *53:4 1.1186
8 *53:2 *53:3 1.4
9 *53:1 *53:2 0.372862
10 *1406:B *53:1 1.4
*END

*D_NET *54 0.00581381

*CONN
*I *1405:B I *C 101.355 21.315 *L 0.00165 *D OR2X1
*I *1401:A1N I *C 101.355 26.535 *L 0.00173 *D OAI2BB1XL
*I *1402:B1 I *C 67.135 23.635 *L 0.00282 *D OAI22X1
*I *1409:Y O *C 63.365 23.055 *L 0 *D NAND2XL

*CAP
1 *54:2 1.81939e-05
2 *54:3 1.81939e-05
3 *54:4 0.000119441
4 *54:5 0.000119441
5 *54:6 1.81939e-05
6 *54:7 0.00226438
7 *54:8 0.000194557
8 *54:9 0.00251624
9 *54:10 0.000194557
10 *54:11 2.01377e-05
11 *54:12 0.000270053
12 *54:14 2.01377e-05
13 *54:15 2.01377e-05
14 *54:17 2.01377e-05

*RES
1 *54:17 *1409:Y 1.4
2 *54:15 *54:17 0.124288
3 *54:14 *1402:B1 1.4
4 *54:12 *54:15 1.4
5 *54:11 *54:14 0.124288
6 *54:10 *1401:A1N 1.4
7 *54:9 *54:12 1.61575
8 *54:9 *54:11 1.4
9 *54:8 *54:10 1.36718
10 *54:7 *54:9 14.6656
11 *54:7 *54:8 1.4
12 *54:6 *54:7 0.124283
13 *54:5 *54:6 1.4
14 *54:4 *54:5 0.870021
15 *54:3 *54:4 1.4
16 *54:2 *54:3 0.124283
17 *54:1 *54:2 1.4
18 *1405:B *54:1 1.4
*END

*D_NET *55 0.00180001

*CONN
*I *1400:C0 I *C 75.255 21.025 *L 0.0017 *D OAI211XL
*I *1399:B I *C 74.675 26.245 *L 0.00171 *D NOR2XL
*I *1407:Y O *C 71.485 26.825 *L 0 *D NAND2XL
*I *1398:B I *C 70.905 23.635 *L 0.00171 *D NOR2XL

*CAP
1 *55:1 0.000322204
2 *55:2 0.000322204
3 *55:3 4.15467e-05
4 *55:4 0.000270053
5 *55:5 4.1011e-05
6 *55:6 0.000270053
7 *55:7 4.1011e-05
8 *55:8 8.42288e-05
9 *55:9 4.15467e-05
10 *55:11 8.42288e-05
11 *55:12 0.000140964
12 *55:14 0.000140964

*RES
1 *55:14 *1398:B 1.4
2 *55:12 *55:14 0.870018
3 *55:11 *1407:Y 1.4
4 *55:9 *55:12 1.4
5 *55:8 *55:11 0.497141
6 *55:7 *1399:B 1.4
7 *55:6 *55:9 0.248578
8 *55:6 *55:8 1.4
9 *55:5 *55:7 0.248574
10 *55:4 *55:6 1.36718
11 *55:4 *55:5 1.4
12 *55:3 *55:4 0.248578
13 *55:2 *55:3 1.4
14 *55:1 *55:2 1.98861
15 *1400:C0 *55:1 1.4
*END

*D_NET *56 0.00302302

*CONN
*I *1402:A1 I *C 66.555 23.635 *L 0.00277 *D OAI22X1
*I *1406:Y O *C 64.815 26.825 *L 0 *D NAND2XL
*I *1403:B I *C 53.505 26.245 *L 0.00171 *D NOR2XL

*CAP
1 *56:1 0.000246802
2 *56:2 0.000246802
3 *56:3 0.000157103
4 *56:4 0.00117827
5 *56:5 2.16089e-05
6 *56:6 0.00102117
7 *56:7 2.16089e-05
8 *56:8 6.48267e-05
9 *56:10 6.48267e-05

*RES
1 *56:10 *1403:B 1.4
2 *56:8 *56:10 0.37285
3 *56:7 *1406:Y 1.4
4 *56:6 *56:8 1.4
5 *56:5 *56:7 0.124283
6 *56:4 *56:6 4.84726
7 *56:4 *56:5 1.4
8 *56:3 *56:4 0.745732
9 *56:2 *56:3 1.4
10 *56:1 *56:2 1.49144
11 *1402:A1 *56:1 1.4
*END

*D_NET *57 0.00298868

*CONN
*I *1421:A0 I *C 37.265 21.025 *L 0.00257 *D OAI32X1
*I *1395:Y O *C 22.2675 10.585 *L 0 *D INVXL

*CAP
1 *57:2 0.000910127
2 *57:3 0.000910127
3 *57:4 0.000579496
4 *57:5 0.000584214
5 *57:6 4.71812e-06

*RES
1 *57:6 *1395:Y 1.4
2 *57:5 *57:6 0.0364295
3 *57:4 *57:5 4.4744
4 *57:3 *57:4 1.4
5 *57:2 *57:3 6.46302
6 *57:1 *57:2 1.4
7 *1421:A0 *57:1 1.4
*END

*D_NET *58 0.00538467

*CONN
*I *1400:B0 I *C 74.965 21.025 *L 0.0017 *D OAI211XL
*I *1399:A I *C 74.385 26.535 *L 0.00162 *D NOR2XL
*I *1410:Y O *C 65.8925 21.315 *L 0 *D CLKINVX1
*I *1406:A I *C 64.235 26.245 *L 0.00157 *D NAND2XL
*I *1408:B I *C 59.305 26.245 *L 0.00171 *D NOR2XL
*I *1419:C I *C 60.755 18.415 *L 0.00167 *D OR4XL

*CAP
1 *58:1 4.02754e-05
2 *58:2 4.02754e-05
3 *58:3 4.15467e-05
4 *58:4 4.15467e-05
5 *58:5 0.000344548
6 *58:6 0.000344548
7 *58:8 0.000759331
8 *58:9 0.000759331
9 *58:10 6.26199e-05
10 *58:11 0.000364686
11 *58:12 0.00012464
12 *58:13 0.000307621
13 *58:14 0.00043624
14 *58:15 5.55523e-06
15 *58:16 4.1011e-05
16 *58:17 0.0003116
17 *58:19 4.1011e-05
18 *58:20 0.000544454
19 *58:22 4.1011e-05
20 *58:23 0.000503443
21 *58:24 5.23677e-05
22 *58:25 6.232e-05
23 *58:26 5.23677e-05
24 *58:27 6.232e-05

*RES
1 *58:29 *1419:C 1.4
2 *58:28 *1408:B 1.4
3 *58:27 *58:29 1.4
4 *58:26 *58:28 1.4
5 *58:25 *58:27 0.372866
6 *58:24 *58:26 0.248577
7 *58:23 *58:25 1.4
8 *58:22 *58:24 1.4
9 *58:20 *58:23 3.10721
10 *58:20 *58:22 0.248574
11 *58:19 *1406:A 1.4
12 *58:17 *58:20 1.4
13 *58:16 *58:19 0.248574
14 *58:15 *1410:Y 1.4
15 *58:14 *58:17 1.86433
16 *58:14 *58:16 1.4
17 *58:13 *58:15 0.0342864
18 *58:12 *58:14 0.745733
19 *58:11 *58:13 1.86432
20 *58:11 *58:12 1.4
21 *58:10 *58:11 0.372858
22 *58:9 *58:10 1.4
23 *58:8 *58:9 3.60437
24 *58:6 *58:8 1.4
25 *58:6 *1399:A 1.4
26 *58:5 *58:6 2.11289
27 *58:4 *58:5 1.4
28 *58:3 *58:4 0.248578
29 *58:2 *58:3 1.4
30 *58:1 *58:2 0.248577
31 *1400:B0 *58:1 1.4
*END

*D_NET *59 0.00473863

*CONN
*I *1392:B I *C 26.245 26.245 *L 0.00171 *D NOR2XL
*I *1393:AN I *C 29.725 26.245 *L 0.00174 *D NOR2BX1
*I *1403:Y O *C 53.215 25.955 *L 0 *D NOR2XL

*CAP
1 *59:2 0.000302588
2 *59:3 0.00234844
3 *59:4 0.00204585
4 *59:6 2.08733e-05
5 *59:8 2.08733e-05

*RES
1 *59:8 *1403:Y 1.4
2 *59:6 *59:8 0.124286
3 *59:5 *1393:AN 1.4
4 *59:4 *59:6 1.4
5 *59:3 *59:5 1.4
6 *59:3 *59:4 10.0669
7 *59:2 *59:3 1.49139
8 *59:1 *59:2 1.4
9 *1392:B *59:1 1.4
*END

*D_NET *60 0.00740119

*CONN
*I *1396:B I *C 77.575 21.315 *L 0.00165 *D OR2X1
*I *1404:Y O *C 56.985 26.825 *L 0 *D AND2X1
*I *958:B I *C 51.475 33.495 *L 0.00285 *D NAND3X1
*I *1335:D I *C 45.095 34.075 *L 0.00168 *D NAND4BBXL
*I *1336:C I *C 44.515 31.755 *L 0.00285 *D NAND3X1

*CAP
1 *60:2 0.00149568
2 *60:3 0.00149568
3 *60:4 0.000241653
4 *60:5 0.000241653
5 *60:6 2.07733e-05
6 *60:7 2.07733e-05
7 *60:8 0.000144642
8 *60:9 0.000641646
9 *60:10 0.000497004
10 *60:12 0.000495073
11 *60:13 0.00104982
12 *60:15 0.000605175
13 *60:17 5.01487e-05
14 *60:18 5.04313e-05
15 *60:19 5.01487e-05
16 *60:20 0.000150446
17 *60:22 0.000150446

*RES
1 *60:22 *1336:C 1.4
2 *60:20 *60:22 0.745731
3 *60:19 *1335:D 1.4
4 *60:18 *60:20 1.4
5 *60:17 *60:19 0.248577
6 *60:15 *60:18 0.248566
7 *60:15 *60:17 1.4
8 *60:14 *958:B 1.4
9 *60:13 *60:15 2.73422
10 *60:13 *60:14 1.4
11 *60:12 *60:13 2.36147
12 *60:10 *60:12 1.4
13 *60:9 *1404:Y 1.4
14 *60:9 *60:10 2.85852
15 *60:8 *60:9 0.870006
16 *60:7 *60:8 1.4
17 *60:6 *60:7 0.124289
18 *60:5 *60:6 1.4
19 *60:4 *60:5 1.49146
20 *60:3 *60:4 1.4
21 *60:2 *60:3 8.94879
22 *60:1 *60:2 1.4
23 *1396:B *60:1 1.4
*END

*D_NET *61 0.00776191

*CONN
*I *723:A I *C 62.775 7.9125 *L 0.00163 *D INVXL
*I *1364:B I *C 68.875 13.195 *L 0.00167 *D NAND2XL
*I *1396:A I *C 78.445 21.025 *L 0.00173 *D OR2X1
*I *1398:Y O *C 71.195 23.925 *L 0 *D NOR2XL
*I *1397:AN I *C 101.935 18.415 *L 0.00174 *D NAND2BXL

*CAP
1 *61:1 6.94404e-07
2 *61:2 0.00036734
3 *61:3 0.000366645
4 *61:4 0.00043624
5 *61:5 0.000477787
6 *61:6 4.15467e-05
7 *61:8 0.000523581
8 *61:10 0.000523581
9 *61:11 0.000103867
10 *61:12 0.000642684
11 *61:13 0.000221515
12 *61:14 0.000538817
13 *61:15 0.000221515
14 *61:16 0.000153567
15 *61:17 2.07733e-05
16 *61:18 1.7063e-05
17 *61:19 0.000136504
18 *61:20 2.07733e-05
19 *61:22 0.00147371
20 *61:24 0.00147371

*RES
1 *61:26 *1397:AN 1.4
2 *61:24 *61:26 1.4
3 *61:23 *1398:Y 1.4
4 *61:22 *61:24 10.067
5 *61:20 *61:23 1.4
6 *61:19 *61:22 1.4
7 *61:18 *1396:A 1.4
8 *61:17 *61:20 0.124289
9 *61:16 *61:19 0.99431
10 *61:16 *61:18 0.124289
11 *61:15 *61:17 1.4
12 *61:14 *61:16 1.4
13 *61:13 *61:15 1.36717
14 *61:12 *61:14 3.23151
15 *61:12 *61:13 1.4
16 *61:11 *61:12 0.621444
17 *61:10 *61:11 1.4
18 *61:8 *61:10 3.2315
19 *61:7 *1364:B 1.4
20 *61:6 *61:8 1.4
21 *61:5 *61:7 1.4
22 *61:5 *61:6 0.248578
23 *61:4 *61:5 2.61006
24 *61:3 *61:4 1.4
25 *61:2 *61:3 2.2629
26 *61:1 *61:2 0.0042858
27 *723:A *61:1 1.4
*END

*D_NET *62 0.00282818

*CONN
*I *1361:A2 I *C 66.265 7.685 *L 0.00279 *D OAI31X1
*I *1380:C I *C 66.555 10.875 *L 0.00291 *D NOR3BX1
*I *1360:A1 I *C 66.555 5.945 *L 0.00163 *D AO21X1
*I *1402:Y O *C 66.845 24.215 *L 0 *D OAI22X1
*I *1377:C I *C 68.295 18.125 *L 0.00163 *D NAND4BXL

*CAP
1 *62:2 2.07733e-05
2 *62:3 2.07733e-05
3 *62:4 0.000342341
4 *62:5 0.000664545
5 *62:6 0.000120826
6 *62:7 0.00044303
7 *62:10 2.07733e-05
8 *62:11 2.07733e-05
9 *62:12 6.04132e-05
10 *62:13 0.000483305
11 *62:14 0.000422892
12 *62:15 0.000103867
13 *62:17 0.000103867

*RES
1 *62:18 *1377:C 1.4
2 *62:17 *62:18 1.4
3 *62:15 *62:17 0.621444
4 *62:14 *1402:Y 1.4
5 *62:13 *62:15 1.4
6 *62:13 *62:14 2.61005
7 *62:12 *62:13 0.372865
8 *62:11 *62:12 1.4
9 *62:10 *62:11 0.124289
10 *62:7 *62:10 1.4
11 *62:6 *1360:A1 1.4
12 *62:5 *1380:C 1.4
13 *62:5 *62:7 2.73434
14 *62:4 *62:6 0.74573
15 *62:4 *62:5 1.36717
16 *62:3 *62:4 1.4
17 *62:2 *62:3 0.124289
18 *62:1 *62:2 1.4
19 *1361:A2 *62:1 1.4
*END

*D_NET *63 0.00307372

*CONN
*I *958:A I *C 51.765 33.785 *L 0.00264 *D NAND3X1
*I *956:A I *C 48.575 31.755 *L 0.00267 *D NAND2X1
*I *1408:Y O *C 59.015 25.955 *L 0 *D NOR2XL
*I *1404:B I *C 55.825 26.245 *L 0.00172 *D AND2X1

*CAP
1 *63:2 2.52156e-05
2 *63:3 2.52156e-05
3 *63:4 0.000200595
4 *63:5 0.000200595
5 *63:6 0.000277372
6 *63:7 2.52156e-05
7 *63:8 0.000252156
8 *63:9 0.000472717
9 *63:10 2.50744e-05
10 *63:11 0.000472717
11 *63:12 2.50744e-05
12 *63:13 0.000286505
13 *63:15 0.000515011
14 *63:16 0.000228507
15 *63:17 2.08733e-05
16 *63:19 2.08733e-05

*RES
1 *63:19 *1404:B 1.4
2 *63:18 *1408:Y 1.4
3 *63:17 *63:19 0.124286
4 *63:16 *63:18 1.4
5 *63:15 *63:17 1.4
6 *63:15 *63:16 1.36718
7 *63:13 *63:15 1.74004
8 *63:12 *956:A 1.4
9 *63:11 *63:13 1.4
10 *63:10 *63:12 0.124289
11 *63:9 *63:11 2.36148
12 *63:8 *63:10 1.4
13 *63:7 *63:9 1.4
14 *63:6 *63:8 1.24283
15 *63:6 *63:7 0.124283
16 *63:5 *63:6 1.4
17 *63:4 *63:5 0.994308
18 *63:3 *63:4 1.4
19 *63:2 *63:3 0.124283
20 *63:1 *63:2 1.4
21 *958:A *63:1 1.4
*END

*D_NET *64 0.00343061

*CONN
*I *1365:C I *C 72.355 16.095 *L 0.00285 *D NAND3X1
*I *1366:B I *C 72.355 18.125 *L 0.00173 *D OR3X1
*I *1371:B0 I *C 73.515 7.685 *L 0.00282 *D OAI31X1
*I *1367:Q O *C 80.475 5.945 *L 0 *D SDFFQX1
*I *1359:SI I *C 82.505 7.975 *L 0.00172 *D SDFFQX1

*CAP
1 *64:1 0.000140964
2 *64:2 0.000140964
3 *64:3 6.232e-05
4 *64:5 6.232e-05
5 *64:6 0.000745096
6 *64:7 0.000745096
7 *64:8 2.07733e-05
8 *64:9 0.000499988
9 *64:10 0.000479214
10 *64:11 2.01377e-05
11 *64:12 0.000119441
12 *64:13 2.01377e-05
13 *64:14 3.41259e-05
14 *64:15 8.53149e-05
15 *64:17 0.000127358
16 *64:19 0.000127358

*RES
1 *64:20 *1359:SI 1.4
2 *64:19 *64:20 1.4
3 *64:17 *64:19 0.869984
4 *64:15 *1367:Q 1.4
5 *64:14 *64:17 1.4
6 *64:13 *1371:B0 1.4
7 *64:12 *64:15 0.621444
8 *64:12 *64:14 0.248578
9 *64:11 *64:13 0.124288
10 *64:10 *64:12 1.4
11 *64:9 *64:11 1.4
12 *64:9 *64:10 2.98289
13 *64:8 *64:9 0.124289
14 *64:7 *64:8 1.4
15 *64:6 *64:7 4.59867
16 *64:5 *64:6 1.4
17 *64:3 *64:5 0.372866
18 *64:2 *1366:B 1.4
19 *64:2 *64:3 1.4
20 *64:1 *64:2 0.870018
21 *1365:C *64:1 1.4
*END

*D_NET *65 0.000768907

*CONN
*I *1429:B I *C 45.965 26.245 *L 0.00171 *D NOR2XL
*I *923:Y O *C 46.3375 28.565 *L 0 *D CLKINVX1
*I *1432:A I *C 47.995 28.565 *L 0.00273 *D INVX1

*CAP
1 *65:2 2.52156e-05
2 *65:3 2.52156e-05
3 *65:4 0.000200595
4 *65:5 0.000207944
5 *65:6 7.34938e-06
6 *65:7 0.000151294
7 *65:9 0.000151294

*RES
1 *65:10 *1432:A 1.4
2 *65:9 *65:10 1.4
3 *65:7 *65:9 0.745697
4 *65:6 *923:Y 1.4
5 *65:5 *65:7 1.4
6 *65:5 *65:6 0.0364294
7 *65:4 *65:5 0.994308
8 *65:3 *65:4 1.4
9 *65:2 *65:3 0.124283
10 *65:1 *65:2 1.4
11 *1429:B *65:1 1.4
*END

*D_NET *66 0.00258081

*CONN
*I *1045:A0 I *C 58.725 44.225 *L 0.00156 *D AOI222XL
*I *738:Q O *C 53.795 37.265 *L 0 *D SDFFQX1
*I *738:SI I *C 60.465 36.685 *L 0.00172 *D SDFFQX1

*CAP
1 *66:2 0.000104735
2 *66:3 0.000104735
3 *66:4 0.000497004
4 *66:5 0.000561831
5 *66:6 0.00034039
6 *66:7 6.48267e-05
7 *66:8 0.00034039
8 *66:9 0.000261838
9 *66:10 2.16089e-05
10 *66:11 0.000261838
11 *66:12 2.16089e-05

*RES
1 *66:13 *738:SI 1.4
2 *66:12 *738:Q 1.4
3 *66:11 *66:13 1.4
4 *66:10 *66:12 0.124283
5 *66:9 *66:11 1.24289
6 *66:8 *66:10 1.4
7 *66:7 *66:9 1.4
8 *66:6 *66:8 1.61575
9 *66:5 *66:7 0.37285
10 *66:5 *66:6 1.4
11 *66:4 *66:5 2.85852
12 *66:3 *66:4 1.4
13 *66:2 *66:3 0.497155
14 *66:1 *66:2 1.4
15 *1045:A0 *66:1 1.4
*END

*D_NET *67 0.00212545

*CONN
*I *737:SI I *C 99.615 36.685 *L 0.00172 *D SDFFQX1
*I *1093:A0 I *C 96.715 41.905 *L 0.00264 *D AOI22X1
*I *737:Q O *C 92.945 37.265 *L 0 *D SDFFQX1

*CAP
1 *67:1 4.32789e-05
2 *67:2 4.32789e-05
3 *67:3 0.000255069
4 *67:4 0.000255069
5 *67:5 8.65579e-05
6 *67:6 0.000432789
7 *67:7 0.000346231
8 *67:8 0.00033159
9 *67:10 0.00033159

*RES
1 *67:11 *737:Q 1.4
2 *67:10 *67:11 1.4
3 *67:8 *67:10 1.61575
4 *67:7 *1093:A0 1.4
5 *67:6 *67:8 1.4
6 *67:6 *67:7 1.98862
7 *67:5 *67:6 0.497155
8 *67:4 *67:5 1.4
9 *67:3 *67:4 1.24289
10 *67:2 *67:3 1.4
11 *67:1 *67:2 0.248578
12 *737:SI *67:1 1.4
*END

*D_NET *68 0.00221955

*CONN
*I *1041:B0 I *C 101.533 44.5875 *L 0.00163 *D AOI222XL
*I *736:SI I *C 103.095 39.295 *L 0.00172 *D SDFFQX1
*I *736:Q O *C 96.425 38.715 *L 0 *D SDFFQX1

*CAP
1 *68:1 8.20807e-06
2 *68:2 1.38045e-05
3 *68:3 5.59641e-06
4 *68:4 7.65207e-05
5 *68:5 7.65207e-05
6 *68:6 0.00038951
7 *68:7 0.000432789
8 *68:8 5.10138e-05
9 *68:9 4.32789e-05
10 *68:10 5.10138e-05
11 *68:11 0.000535645
12 *68:13 0.000535645

*RES
1 *68:15 *736:Q 1.4
2 *68:13 *68:15 1.4
3 *68:12 *736:SI 1.4
4 *68:11 *68:13 2.61006
5 *68:10 *68:12 1.4
6 *68:9 *68:11 1.4
7 *68:8 *68:10 0.248578
8 *68:7 *68:9 0.248578
9 *68:7 *68:8 1.4
10 *68:6 *68:7 2.2372
11 *68:5 *68:6 1.4
12 *68:4 *68:5 0.372866
13 *68:3 *68:4 1.4
14 *68:2 *68:3 0.0321436
15 *68:1 *68:2 0.047144
16 *1041:B0 *68:1 1.4
*END

*D_NET *69 0.00173776

*CONN
*I *735:SI I *C 78.735 49.735 *L 0.00172 *D SDFFQX1
*I *1086:A0 I *C 80.765 52.345 *L 0.00264 *D AOI22X1
*I *735:Q O *C 85.405 49.155 *L 0 *D SDFFQX1

*CAP
1 *69:1 4.32789e-05
2 *69:2 4.32789e-05
3 *69:3 0.000178548
4 *69:4 0.000178548
5 *69:5 0.000174026
6 *69:6 0.000152386
7 *69:7 2.16395e-05
8 *69:9 0.00040811
9 *69:10 0.00040811
10 *69:11 6.49184e-05
11 *69:12 6.49184e-05

*RES
1 *69:12 *735:Q 1.4
2 *69:11 *69:12 0.372866
3 *69:10 *69:11 1.4
4 *69:9 *69:10 1.98862
5 *69:7 *69:9 1.4
6 *69:6 *1086:A0 1.4
7 *69:5 *69:7 0.124289
8 *69:5 *69:6 0.870021
9 *69:4 *69:5 1.4
10 *69:3 *69:4 0.870021
11 *69:2 *69:3 1.4
12 *69:1 *69:2 0.248578
13 *735:SI *69:1 1.4
*END

*D_NET *70 0.00185584

*CONN
*I *1048:A0 I *C 104.545 83.955 *L 0.00156 *D AOI222XL
*I *734:Q O *C 106.285 85.695 *L 0 *D SDFFQX1
*I *734:SI I *C 112.955 86.275 *L 0.00172 *D SDFFQX1

*CAP
1 *70:2 4.95232e-05
2 *70:3 4.95232e-05
3 *70:4 0.0001232
4 *70:5 0.0001232
5 *70:6 0.000181277
6 *70:7 0.000181277
7 *70:8 2.29546e-05
8 *70:9 2.29546e-05
9 *70:10 0.000505058
10 *70:12 0.000505058
11 *70:13 4.59092e-05
12 *70:14 4.59092e-05

*RES
1 *70:14 *734:SI 1.4
2 *70:13 *70:14 0.248565
3 *70:12 *70:13 1.4
4 *70:10 *70:12 2.85864
5 *70:9 *734:Q 1.4
6 *70:9 *70:10 1.4
7 *70:8 *70:9 0.124283
8 *70:7 *70:8 1.4
9 *70:6 *70:7 0.994301
10 *70:5 *70:6 1.4
11 *70:4 *70:5 0.621444
12 *70:3 *70:4 1.4
13 *70:2 *70:3 0.248569
14 *70:1 *70:2 1.4
15 *1048:A0 *70:1 1.4
*END

*D_NET *71 0.00212644

*CONN
*I *733:SI I *C 106.575 73.225 *L 0.00172 *D SDFFQX1
*I *1114:A0 I *C 102.805 68.005 *L 0.00264 *D AOI22X1
*I *733:Q O *C 99.905 73.805 *L 0 *D SDFFQX1

*CAP
1 *71:2 0.000309211
2 *71:3 0.000309211
3 *71:4 2.34591e-05
4 *71:5 0.000422264
5 *71:6 0.000261369
6 *71:7 0.000398805
7 *71:8 0.000261369
8 *71:10 7.03774e-05
9 *71:11 7.03774e-05

*RES
1 *71:11 *733:Q 1.4
2 *71:10 *71:11 0.372864
3 *71:8 *71:10 1.4
4 *71:7 *1114:A0 1.4
5 *71:6 *71:8 1.24289
6 *71:5 *71:7 2.1129
7 *71:5 *71:6 1.4
8 *71:4 *71:5 0.124288
9 *71:3 *71:4 1.4
10 *71:2 *71:3 1.61575
11 *71:1 *71:2 1.4
12 *733:SI *71:1 1.4
*END

*D_NET *72 0.00180993

*CONN
*I *1052:A0 I *C 110.925 110.055 *L 0.00156 *D AOI222XL
*I *732:SI I *C 112.665 114.985 *L 0.00172 *D SDFFQX1
*I *732:Q O *C 119.335 115.565 *L 0 *D SDFFQX1

*CAP
1 *72:1 0.000312161
2 *72:2 0.000312161
3 *72:3 0.000115051
4 *72:4 0.000556081
5 *72:5 0.00044103
6 *72:7 3.67249e-05
7 *72:9 3.67249e-05

*RES
1 *72:9 *732:Q 1.4
2 *72:7 *72:9 0.248576
3 *72:6 *732:SI 1.4
4 *72:5 *72:7 1.4
5 *72:4 *72:6 1.4
6 *72:4 *72:5 2.85851
7 *72:3 *72:4 0.745699
8 *72:2 *72:3 1.4
9 *72:1 *72:2 2.1129
10 *1052:A0 *72:1 1.4
*END

*D_NET *73 0.00158568

*CONN
*I *731:SI I *C 104.255 114.985 *L 0.00172 *D SDFFQX1
*I *1047:A0 I *C 104.545 110.055 *L 0.00156 *D AOI222XL
*I *731:Q O *C 110.925 115.565 *L 0 *D SDFFQX1

*CAP
1 *73:2 2.2097e-05
2 *73:3 2.2097e-05
3 *73:4 0.000348886
4 *73:5 3.67249e-05
5 *73:6 0.000312161
6 *73:7 0.000421854
7 *73:9 0.000421854

*RES
1 *73:10 *731:Q 1.4
2 *73:9 *73:10 1.4
3 *73:7 *73:9 2.73423
4 *73:6 *1047:A0 1.4
5 *73:5 *73:7 1.4
6 *73:4 *73:6 2.1129
7 *73:4 *73:5 0.248576
8 *73:3 *73:4 1.4
9 *73:2 *73:3 0.124283
10 *73:1 *73:2 1.4
11 *731:SI *73:1 1.4
*END

*D_NET *74 0.00199253

*CONN
*I *730:SI I *C 77.285 75.835 *L 0.00172 *D SDFFQX1
*I *1070:A0 I *C 75.835 78.445 *L 0.00264 *D AOI22X1
*I *730:Q O *C 70.615 75.255 *L 0 *D SDFFQX1

*CAP
1 *74:1 2.412e-05
2 *74:2 2.412e-05
3 *74:3 0.000210047
4 *74:4 0.000210047
5 *74:5 2.412e-05
6 *74:6 0.000241254
7 *74:7 0.000217134
8 *74:8 0.000393839
9 *74:9 7.87643e-05
10 *74:10 0.000393839
11 *74:11 7.87643e-05
12 *74:12 4.82399e-05
13 *74:14 4.82399e-05

*RES
1 *74:14 *730:Q 1.4
2 *74:13 *1070:A0 1.4
3 *74:12 *74:14 0.248567
4 *74:11 *74:13 1.4
5 *74:10 *74:12 1.4
6 *74:9 *74:11 0.372866
7 *74:8 *74:10 1.86424
8 *74:7 *74:9 1.4
9 *74:6 *74:8 1.4
10 *74:6 *74:7 1.11855
11 *74:5 *74:6 0.124284
12 *74:4 *74:5 1.4
13 *74:3 *74:4 0.994263
14 *74:2 *74:3 1.4
15 *74:1 *74:2 0.124284
16 *730:SI *74:1 1.4
*END

*D_NET *75 0.00290014

*CONN
*I *729:SI I *C 66.555 117.595 *L 0.00172 *D SDFFQX1
*I *729:Q O *C 59.885 117.015 *L 0 *D SDFFQX1
*I *1113:A0 I *C 59.305 107.155 *L 0.00264 *D AOI22X1

*CAP
1 *75:1 4.09545e-05
2 *75:2 4.09545e-05
3 *75:3 0.000580503
4 *75:4 0.000580503
5 *75:5 8.19091e-05
6 *75:6 0.000778136
7 *75:8 0.000696227
8 *75:9 5.04785e-05
9 *75:10 5.04785e-05

*RES
1 *75:11 *1113:A0 1.4
2 *75:10 *75:11 1.4
3 *75:9 *75:10 0.248566
4 *75:8 *75:9 1.4
5 *75:6 *75:8 4.22564
6 *75:6 *729:Q 1.4
7 *75:5 *75:6 0.497134
8 *75:4 *75:5 1.4
9 *75:3 *75:4 2.85851
10 *75:2 *75:3 1.4
11 *75:1 *75:2 0.248567
12 *729:SI *75:1 1.4
*END

*D_NET *76 0.00136872

*CONN
*I *728:SI I *C 32.915 117.595 *L 0.00172 *D SDFFQX1
*I *1155:A I *C 28.275 114.985 *L 0.00157 *D NAND2XL
*I *728:Q O *C 26.245 117.015 *L 0 *D SDFFQX1

*CAP
1 *76:1 1.97822e-05
2 *76:2 1.97822e-05
3 *76:3 0.000352224
4 *76:4 0.000352224
5 *76:5 1.97822e-05
6 *76:6 0.000158258
7 *76:7 0.000154098
8 *76:8 0.000138475
9 *76:9 0.000154098

*RES
1 *76:11 *728:Q 1.4
2 *76:9 *76:11 1.4
3 *76:8 *1155:A 1.4
4 *76:7 *76:9 0.870021
5 *76:6 *76:8 0.869982
6 *76:6 *76:7 1.4
7 *76:5 *76:6 0.124283
8 *76:4 *76:5 1.4
9 *76:3 *76:4 1.98862
10 *76:2 *76:3 1.4
11 *76:1 *76:2 0.124283
12 *728:SI *76:1 1.4
*END

*D_NET *77 0.00143574

*CONN
*I *727:SI I *C 24.505 114.985 *L 0.00172 *D SDFFQX1
*I *1139:A1 I *C 24.215 110.345 *L 0.00171 *D AOI22XL
*I *727:Q O *C 17.835 115.565 *L 0 *D SDFFQX1

*CAP
1 *77:2 1.76828e-05
2 *77:3 1.76828e-05
3 *77:4 0.000311166
4 *77:5 3.4574e-05
5 *77:6 0.000276592
6 *77:7 0.000389022
7 *77:9 0.000389022

*RES
1 *77:10 *727:Q 1.4
2 *77:9 *77:10 1.4
3 *77:7 *77:9 2.73424
4 *77:6 *1139:A1 1.4
5 *77:5 *77:7 1.4
6 *77:4 *77:6 1.9886
7 *77:4 *77:5 0.248575
8 *77:3 *77:4 1.4
9 *77:2 *77:3 0.124284
10 *77:1 *77:2 1.4
11 *727:SI *77:1 1.4
*END

*D_NET *78 0.00156417

*CONN
*I *726:SI I *C 25.665 78.445 *L 0.00172 *D SDFFQX1
*I *1132:A0 I *C 29.725 80.765 *L 0.00271 *D OAI21X1
*I *726:Q O *C 32.335 79.025 *L 0 *D SDFFQX1

*CAP
1 *78:1 2.10222e-05
2 *78:2 2.10222e-05
3 *78:3 0.000339372
4 *78:4 0.000339372
5 *78:5 4.98381e-05
6 *78:6 0.000174433
7 *78:7 0.000222336
8 *78:8 0.000124595
9 *78:9 0.000222336
10 *78:11 2.49191e-05
11 *78:12 2.49191e-05

*RES
1 *78:12 *726:Q 1.4
2 *78:11 *78:12 0.124289
3 *78:9 *78:11 1.4
4 *78:8 *1132:A0 1.4
5 *78:7 *78:9 1.11855
6 *78:6 *78:8 0.621444
7 *78:6 *78:7 1.4
8 *78:5 *78:6 0.248578
9 *78:4 *78:5 1.4
10 *78:3 *78:4 1.73996
11 *78:2 *78:3 1.4
12 *78:1 *78:2 0.124283
13 *726:SI *78:1 1.4
*END

*D_NET *79 0.00142053

*CONN
*I *1178:A0 I *C 25.375 41.905 *L 0.00264 *D AOI22X1
*I *725:SI I *C 24.505 44.515 *L 0.00172 *D SDFFQX1
*I *725:Q O *C 17.835 43.935 *L 0 *D SDFFQX1

*CAP
1 *79:1 0.000140599
2 *79:2 0.000140599
3 *79:3 6.10956e-05
4 *79:4 0.000529495
5 *79:5 4.0171e-05
6 *79:6 0.000468399
7 *79:7 4.0171e-05

*RES
1 *79:8 *725:Q 1.4
2 *79:7 *725:SI 1.4
3 *79:6 *79:8 1.4
4 *79:5 *79:7 0.248567
5 *79:4 *79:6 2.85851
6 *79:4 *79:5 1.4
7 *79:3 *79:4 0.372849
8 *79:2 *79:3 1.4
9 *79:1 *79:2 0.869983
10 *1178:A0 *79:1 1.4
*END

*D_NET *80 0.0014213

*CONN
*I *724:SI I *C 26.535 62.785 *L 0.00172 *D SDFFQX1
*I *1353:B0 I *C 24.215 65.685 *L 0.00171 *D AO22XL
*I *724:Q O *C 19.865 63.365 *L 0 *D SDFFQX1

*CAP
1 *80:1 2.56639e-05
2 *80:2 2.56639e-05
3 *80:3 0.000170665
4 *80:4 0.000170665
5 *80:5 2.2747e-05
6 *80:6 0.000204723
7 *80:7 0.000181976
8 *80:8 0.000309596
9 *80:10 0.000309596

*RES
1 *80:11 *724:Q 1.4
2 *80:10 *80:11 1.4
3 *80:8 *80:10 1.86425
4 *80:7 *1353:B0 1.4
5 *80:6 *80:8 1.4
6 *80:6 *80:7 0.994268
7 *80:5 *80:6 0.124284
8 *80:4 *80:5 1.4
9 *80:3 *80:4 0.994264
10 *80:2 *80:3 1.4
11 *80:1 *80:2 0.124283
12 *724:SI *80:1 1.4
*END

*D_NET *81 0.00158439

*CONN
*I *1045:B0 I *C 60.3525 44.5875 *L 0.00163 *D AOI222XL
*I *753:D I *C 61.335 47.125 *L 0.00183 *D SDFFQX1
*I *753:Q O *C 56.115 47.705 *L 0 *D SDFFQX1

*CAP
1 *81:1 8.19648e-06
2 *81:2 1.3785e-05
3 *81:3 5.58851e-06
4 *81:4 2.61838e-05
5 *81:5 2.61838e-05
6 *81:6 0.00019448
7 *81:7 0.000259307
8 *81:8 6.48267e-05
9 *81:9 5.23677e-05
10 *81:10 0.000418941
11 *81:11 5.23677e-05
12 *81:12 0.000418941
13 *81:14 2.16089e-05
14 *81:16 2.16089e-05

*RES
1 *81:16 *753:Q 1.4
2 *81:14 *81:16 0.124283
3 *81:13 *753:D 1.4
4 *81:12 *81:14 1.4
5 *81:11 *81:13 1.4
6 *81:10 *81:12 1.98862
7 *81:9 *81:11 0.248577
8 *81:8 *81:10 1.4
9 *81:7 *81:9 1.4
10 *81:7 *81:8 0.37285
11 *81:6 *81:7 1.11855
12 *81:5 *81:6 1.4
13 *81:4 *81:5 0.124289
14 *81:3 *81:4 1.4
15 *81:2 *81:3 0.0321423
16 *81:1 *81:2 0.047142
17 *1045:B0 *81:1 1.4
*END

*D_NET *82 0.00146796

*CONN
*I *1099:A0 I *C 107.155 54.955 *L 0.00264 *D AOI22X1
*I *752:Q O *C 102.805 52.925 *L 0 *D SDFFQX1
*I *752:D I *C 108.025 52.345 *L 0.00183 *D SDFFQX1

*CAP
1 *82:2 4.41221e-05
2 *82:3 4.41221e-05
3 *82:4 0.000124124
4 *82:5 0.000223423
5 *82:6 0.000397455
6 *82:7 9.92992e-05
7 *82:8 0.000397455
8 *82:9 2.20611e-05
9 *82:10 4.69183e-05
10 *82:11 2.20611e-05
11 *82:12 4.69183e-05

*RES
1 *82:13 *752:D 1.4
2 *82:12 *752:Q 1.4
3 *82:11 *82:13 1.4
4 *82:10 *82:12 0.248576
5 *82:9 *82:11 0.124289
6 *82:8 *82:10 1.4
7 *82:7 *82:9 1.4
8 *82:6 *82:8 2.11291
9 *82:5 *82:7 0.497155
10 *82:5 *82:6 1.4
11 *82:4 *82:5 0.621444
12 *82:3 *82:4 1.4
13 *82:2 *82:3 0.248578
14 *82:1 *82:2 1.4
15 *1099:A0 *82:1 1.4
*END

*D_NET *83 0.00160276

*CONN
*I *1078:A0 I *C 108.605 47.125 *L 0.00264 *D AOI22X1
*I *751:Q O *C 104.545 42.485 *L 0 *D SDFFQX1
*I *751:D I *C 109.765 41.905 *L 0.00183 *D SDFFQX1

*CAP
1 *83:2 4.15936e-05
2 *83:3 4.15936e-05
3 *83:4 0.000304299
4 *83:5 0.000365159
5 *83:6 0.000332749
6 *83:7 6.08598e-05
7 *83:8 0.000332749
8 *83:9 4.15936e-05
9 *83:10 2.02866e-05
10 *83:11 4.15936e-05
11 *83:12 2.02866e-05

*RES
1 *83:13 *751:D 1.4
2 *83:12 *751:Q 1.4
3 *83:11 *83:13 1.4
4 *83:10 *83:12 0.124283
5 *83:9 *83:11 0.248566
6 *83:8 *83:10 1.4
7 *83:7 *83:9 1.4
8 *83:6 *83:8 1.98853
9 *83:5 *83:7 0.372849
10 *83:5 *83:6 1.4
11 *83:4 *83:5 1.86425
12 *83:3 *83:4 1.4
13 *83:2 *83:3 0.248566
14 *83:1 *83:2 1.4
15 *1078:A0 *83:1 1.4
*END

*D_NET *84 0.00249184

*CONN
*I *1053:A0 I *C 75.255 47.125 *L 0.00264 *D AOI22X1
*I *750:D I *C 75.835 39.295 *L 0.00183 *D SDFFQX1
*I *750:Q O *C 70.615 38.715 *L 0 *D SDFFQX1

*CAP
1 *84:2 7.85515e-05
2 *84:3 7.85515e-05
3 *84:4 0.000626658
4 *84:5 0.000626658
5 *84:6 2.61838e-05
6 *84:7 0.000497493
7 *84:8 4.32178e-05
8 *84:9 0.000471309
9 *84:10 4.32178e-05

*RES
1 *84:11 *750:Q 1.4
2 *84:10 *750:D 1.4
3 *84:9 *84:11 1.4
4 *84:8 *84:10 0.248567
5 *84:7 *84:9 2.2372
6 *84:7 *84:8 1.4
7 *84:6 *84:7 0.124289
8 *84:5 *84:6 1.4
9 *84:4 *84:5 3.60422
10 *84:3 *84:4 1.4
11 *84:2 *84:3 0.372866
12 *84:1 *84:2 1.4
13 *1053:A0 *84:1 1.4
*END

*D_NET *85 0.00128517

*CONN
*I *749:D I *C 113.245 68.005 *L 0.00183 *D SDFFQX1
*I *749:Q O *C 118.465 68.585 *L 0 *D SDFFQX1
*I *1068:A0 I *C 114.695 70.615 *L 0.00264 *D AOI22X1

*CAP
1 *85:1 2.48248e-05
2 *85:2 2.48248e-05
3 *85:3 8.82442e-05
4 *85:4 8.82442e-05
5 *85:5 2.48248e-05
6 *85:6 0.000198598
7 *85:7 0.000308855
8 *85:8 0.000173774
9 *85:9 0.000308855
10 *85:10 2.20611e-05
11 *85:12 2.20611e-05

*RES
1 *85:14 *1068:A0 1.4
2 *85:12 *85:14 1.4
3 *85:11 *749:Q 1.4
4 *85:10 *85:12 0.124289
5 *85:9 *85:11 1.4
6 *85:8 *85:10 1.4
7 *85:7 *85:9 1.74004
8 *85:6 *85:8 0.870021
9 *85:6 *85:7 1.4
10 *85:5 *85:6 0.124289
11 *85:4 *85:5 1.4
12 *85:3 *85:4 0.497155
13 *85:2 *85:3 1.4
14 *85:1 *85:2 0.124289
15 *749:D *85:1 1.4
*END

*D_NET *86 0.00178709

*CONN
*I *1112:A0 I *C 108.315 68.005 *L 0.00264 *D AOI22X1
*I *748:D I *C 110.925 65.395 *L 0.00183 *D SDFFQX1
*I *748:Q O *C 116.145 64.815 *L 0 *D SDFFQX1

*CAP
1 *86:1 2.48248e-05
2 *86:2 2.48248e-05
3 *86:3 2.20611e-05
4 *86:4 2.20611e-05
5 *86:5 0.000223423
6 *86:6 0.000223423
7 *86:7 0.000176488
8 *86:8 0.000573587
9 *86:9 0.000397099
10 *86:10 2.48248e-05
11 *86:11 2.48248e-05
12 *86:12 2.48248e-05
13 *86:13 2.48248e-05

*RES
1 *86:13 *748:Q 1.4
2 *86:12 *748:D 1.4
3 *86:11 *86:13 0.124289
4 *86:10 *86:12 0.124289
5 *86:9 *86:11 1.4
6 *86:8 *86:10 1.4
7 *86:8 *86:9 2.2372
8 *86:7 *86:8 0.99431
9 *86:6 *86:7 1.4
10 *86:5 *86:6 1.1186
11 *86:4 *86:5 1.4
12 *86:3 *86:4 0.124289
13 *86:2 *86:3 1.4
14 *86:1 *86:2 0.124289
15 *1112:A0 *86:1 1.4
*END

*D_NET *87 0.00126907

*CONN
*I *747:D I *C 92.945 117.595 *L 0.00183 *D SDFFQX1
*I *1075:A0 I *C 90.625 114.985 *L 0.00264 *D AOI22X1
*I *747:Q O *C 87.725 117.015 *L 0 *D SDFFQX1

*CAP
1 *87:2 0.00020015
2 *87:3 0.00020015
3 *87:4 4.09329e-05
4 *87:5 0.000184198
5 *87:6 0.000250188
6 *87:7 0.000143265
7 *87:8 0.000250188

*RES
1 *87:10 *747:Q 1.4
2 *87:8 *87:10 1.4
3 *87:7 *1075:A0 1.4
4 *87:6 *87:8 1.24283
5 *87:5 *87:7 0.870021
6 *87:5 *87:6 1.4
7 *87:4 *87:5 0.248578
8 *87:3 *87:4 1.4
9 *87:2 *87:3 0.994263
10 *87:1 *87:2 1.4
11 *747:D *87:1 1.4
*END

*D_NET *88 0.00202407

*CONN
*I *1345:A0 I *C 85.405 115.275 *L 0.00264 *D AOI221X1
*I *746:D I *C 84.825 120.205 *L 0.00183 *D SDFFQX1
*I *746:Q O *C 79.605 120.785 *L 0 *D SDFFQX1

*CAP
1 *88:1 4.09329e-05
2 *88:2 4.09329e-05
3 *88:3 5.00376e-05
4 *88:4 5.00376e-05
5 *88:5 0.000388863
6 *88:6 0.000450262
7 *88:7 6.13994e-05
8 *88:9 0.000450338
9 *88:10 0.000450338
10 *88:11 2.04665e-05
11 *88:12 2.04665e-05

*RES
1 *88:12 *746:Q 1.4
2 *88:11 *88:12 0.124289
3 *88:10 *88:11 1.4
4 *88:9 *88:10 2.23709
5 *88:7 *88:9 1.4
6 *88:6 *746:D 1.4
7 *88:6 *88:7 0.372866
8 *88:5 *88:6 2.36149
9 *88:4 *88:5 1.4
10 *88:3 *88:4 0.248566
11 *88:2 *88:3 1.4
12 *88:1 *88:2 0.248578
13 *1345:A0 *88:1 1.4
*END

*D_NET *89 0.00146753

*CONN
*I *745:D I *C 52.925 68.005 *L 0.00183 *D SDFFQX1
*I *1214:A I *C 57.575 70.5525 *L 0.00163 *D INVXL
*I *745:Q O *C 58.145 68.585 *L 0 *D SDFFQX1

*CAP
1 *89:1 2.412e-05
2 *89:2 2.412e-05
3 *89:3 0.000420095
4 *89:4 0.000420095
5 *89:5 7.23599e-05
6 *89:6 0.000236209
7 *89:7 5.25118e-05
8 *89:8 0.000164681
9 *89:9 5.25118e-05
10 *89:10 8.31723e-07

*RES
1 *89:11 *745:Q 1.4
2 *89:10 *1214:A 1.4
3 *89:9 *89:11 1.4
4 *89:8 *89:10 0.00428564
5 *89:7 *89:9 0.248566
6 *89:6 *89:8 0.844271
7 *89:6 *89:7 1.4
8 *89:5 *89:6 0.372851
9 *89:4 *89:5 1.4
10 *89:3 *89:4 1.98853
11 *89:2 *89:3 1.4
12 *89:1 *89:2 0.124284
13 *745:D *89:1 1.4
*END

*D_NET *90 0.0015515

*CONN
*I *744:D I *C 75.835 120.205 *L 0.00183 *D SDFFQX1
*I *744:Q O *C 70.615 120.785 *L 0 *D SDFFQX1
*I *1064:A0 I *C 72.355 117.595 *L 0.00264 *D AOI22X1

*CAP
1 *90:2 0.000227153
2 *90:3 0.000227153
3 *90:4 2.04773e-05
4 *90:5 0.000184295
5 *90:6 0.000227153
6 *90:7 0.000163818
7 *90:8 0.000227153
8 *90:9 7.57177e-05
9 *90:10 6.14318e-05
10 *90:11 7.57177e-05
11 *90:12 6.14318e-05

*RES
1 *90:13 *1064:A0 1.4
2 *90:12 *744:Q 1.4
3 *90:11 *90:13 1.4
4 *90:10 *90:12 0.37285
5 *90:9 *90:11 0.372849
6 *90:8 *90:10 1.4
7 *90:7 *90:9 1.4
8 *90:6 *90:8 1.11855
9 *90:5 *90:7 0.994267
10 *90:5 *90:6 1.4
11 *90:4 *90:5 0.124283
12 *90:3 *90:4 1.4
13 *90:2 *90:3 1.11855
14 *90:1 *90:2 1.4
15 *744:D *90:1 1.4
*END

*D_NET *91 0.00168543

*CONN
*I *1089:A0 I *C 59.015 101.935 *L 0.00264 *D AOI22X1
*I *743:D I *C 59.305 104.545 *L 0.00183 *D SDFFQX1
*I *743:Q O *C 64.525 105.125 *L 0 *D SDFFQX1

*CAP
1 *91:2 0.000131274
2 *91:3 0.000131274
3 *91:4 0.000216182
4 *91:5 0.000257136
5 *91:6 4.09545e-05
6 *91:7 0.000100957
7 *91:8 0.000353349
8 *91:9 0.000100957
9 *91:10 0.000353349

*RES
1 *91:12 *743:Q 1.4
2 *91:11 *743:D 1.4
3 *91:10 *91:12 1.4
4 *91:9 *91:11 1.4
5 *91:8 *91:10 1.73996
6 *91:7 *91:9 0.497132
7 *91:6 *91:8 1.4
8 *91:5 *91:7 1.4
9 *91:5 *91:6 0.248567
10 *91:4 *91:5 1.1186
11 *91:3 *91:4 1.4
12 *91:2 *91:3 0.621444
13 *91:1 *91:2 1.4
14 *1089:A0 *91:1 1.4
*END

*D_NET *92 0.00123439

*CONN
*I *1157:A I *C 18.415 101.935 *L 0.00157 *D NAND2XL
*I *742:D I *C 19.285 99.325 *L 0.00183 *D SDFFQX1
*I *742:Q O *C 14.065 99.905 *L 0 *D SDFFQX1

*CAP
1 *92:2 6.11421e-05
2 *92:3 6.11421e-05
3 *92:4 0.000147155
4 *92:5 0.0001892
5 *92:6 0.000366853
6 *92:7 4.20444e-05
7 *92:8 0.000366853

*RES
1 *92:10 *742:Q 1.4
2 *92:8 *92:10 1.4
3 *92:7 *742:D 1.4
4 *92:6 *92:8 2.2371
5 *92:5 *92:7 0.248565
6 *92:5 *92:6 1.4
7 *92:4 *92:5 0.869979
8 *92:3 *92:4 1.4
9 *92:2 *92:3 0.372849
10 *92:1 *92:2 1.4
11 *1157:A *92:1 1.4
*END

*D_NET *93 0.00151074

*CONN
*I *741:D I *C 21.025 81.055 *L 0.00183 *D SDFFQX1
*I *1122:A0 I *C 25.955 80.765 *L 0.00271 *D OAI21X1
*I *741:Q O *C 15.805 80.475 *L 0 *D SDFFQX1

*CAP
1 *93:1 2.10222e-05
2 *93:2 2.10222e-05
3 *93:3 0.000713325
4 *93:4 0.000346472
5 *93:5 0.000366853
6 *93:7 2.10222e-05
7 *93:9 2.10222e-05

*RES
1 *93:9 *741:Q 1.4
2 *93:7 *93:9 0.124283
3 *93:6 *1122:A0 1.4
4 *93:5 *93:7 1.4
5 *93:4 *93:6 1.4
6 *93:3 *93:5 2.2371
7 *93:3 *93:4 2.11281
8 *93:2 *93:3 1.4
9 *93:1 *93:2 0.124283
10 *741:D *93:1 1.4
*END

*D_NET *94 0.00129554

*CONN
*I *740:D I *C 25.955 47.125 *L 0.00183 *D SDFFQX1
*I *1185:A0 I *C 23.055 49.735 *L 0.00264 *D AOI22X1
*I *740:Q O *C 20.735 47.705 *L 0 *D SDFFQX1

*CAP
1 *94:1 4.0171e-05
2 *94:2 4.0171e-05
3 *94:3 0.000183287
4 *94:4 0.000183287
5 *94:5 0.000100428
6 *94:6 0.000100428
7 *94:7 2.03652e-05
8 *94:8 0.000183287
9 *94:9 0.000120513
10 *94:10 0.000162921
11 *94:11 0.000120513
12 *94:12 2.00855e-05
13 *94:14 2.00855e-05

*RES
1 *94:14 *740:Q 1.4
2 *94:12 *94:14 0.124283
3 *94:11 *1185:A0 1.4
4 *94:10 *94:12 1.4
5 *94:9 *94:11 0.7457
6 *94:8 *94:10 0.994265
7 *94:8 *94:9 1.4
8 *94:7 *94:8 0.124283
9 *94:6 *94:7 1.4
10 *94:5 *94:6 0.621416
11 *94:4 *94:5 1.4
12 *94:3 *94:4 1.11855
13 *94:2 *94:3 1.4
14 *94:1 *94:2 0.248567
15 *740:D *94:1 1.4
*END

*D_NET *95 0.00210268

*CONN
*I *739:D I *C 21.895 70.615 *L 0.00183 *D SDFFQX1
*I *1137:A0 I *C 21.605 78.735 *L 0.00271 *D OAI21X1
*I *739:Q O *C 16.675 70.035 *L 0 *D SDFFQX1

*CAP
1 *95:2 2.06397e-05
2 *95:3 2.06397e-05
3 *95:4 0.000657077
4 *95:5 0.00063433
5 *95:6 2.2747e-05
6 *95:8 0.000350875
7 *95:9 0.000350875
8 *95:10 2.2747e-05
9 *95:11 2.2747e-05

*RES
1 *95:11 *739:Q 1.4
2 *95:10 *95:11 0.124284
3 *95:9 *95:10 1.4
4 *95:8 *95:9 2.11281
5 *95:6 *95:8 1.4
6 *95:5 *1137:A0 1.4
7 *95:4 *95:6 0.124284
8 *95:4 *95:5 3.47994
9 *95:3 *95:4 1.4
10 *95:2 *95:3 0.124283
11 *95:1 *95:2 1.4
12 *739:D *95:1 1.4
*END

*D_NET *96 0.00170846

*CONN
*I *768:D I *C 61.915 49.735 *L 0.00183 *D SDFFQX1
*I *1103:A1 I *C 60.465 52.925 *L 0.00171 *D AOI22XL
*I *768:Q O *C 56.695 49.155 *L 0 *D SDFFQX1

*CAP
1 *96:1 4.32178e-05
2 *96:2 4.32178e-05
3 *96:3 7.85515e-05
4 *96:4 7.85515e-05
5 *96:5 0.000265584
6 *96:6 0.000200758
7 *96:7 6.48267e-05
8 *96:8 5.25118e-05
9 *96:9 0.000392758
10 *96:10 5.25118e-05
11 *96:11 0.000392758
12 *96:13 2.16089e-05
13 *96:15 2.16089e-05

*RES
1 *96:15 *768:Q 1.4
2 *96:13 *96:15 0.124283
3 *96:12 *1103:A1 1.4
4 *96:11 *96:13 1.4
5 *96:10 *96:12 1.4
6 *96:9 *96:11 1.86433
7 *96:8 *96:10 0.248566
8 *96:7 *96:9 1.4
9 *96:6 *96:8 1.4
10 *96:5 *96:7 0.37285
11 *96:5 *96:6 1.11855
12 *96:4 *96:5 1.4
13 *96:3 *96:4 0.372866
14 *96:2 *96:3 1.4
15 *96:1 *96:2 0.248567
16 *768:D *96:1 1.4
*END

*D_NET *97 0.00144533

*CONN
*I *767:D I *C 99.615 49.735 *L 0.00183 *D SDFFQX1
*I *767:Q O *C 94.395 49.155 *L 0 *D SDFFQX1
*I *1088:A0 I *C 94.685 47.125 *L 0.00264 *D AOI22X1

*CAP
1 *97:1 2.16395e-05
2 *97:2 2.16395e-05
3 *97:3 0.000459124
4 *97:4 0.000459124
5 *97:5 6.49184e-05
6 *97:6 0.000216395
7 *97:8 0.000151476
8 *97:9 2.55069e-05
9 *97:10 2.55069e-05

*RES
1 *97:11 *1088:A0 1.4
2 *97:10 *97:11 1.4
3 *97:9 *97:10 0.124289
4 *97:8 *97:9 1.4
5 *97:6 *97:8 0.870021
6 *97:6 *767:Q 1.4
7 *97:5 *97:6 0.372866
8 *97:4 *97:5 1.4
9 *97:3 *97:4 2.2372
10 *97:2 *97:3 1.4
11 *97:1 *97:2 0.124289
12 *767:D *97:1 1.4
*END

*D_NET *98 0.00134536

*CONN
*I *1077:B0 I *C 123.395 49.445 *L 0.00265 *D AOI22X1
*I *766:D I *C 123.975 52.345 *L 0.00183 *D SDFFQX1
*I *766:Q O *C 118.755 52.925 *L 0 *D SDFFQX1

*CAP
1 *98:2 2.07968e-05
2 *98:3 2.07968e-05
3 *98:4 0.000205135
4 *98:5 0.000254785
5 *98:6 4.96496e-05
6 *98:7 2.20611e-05
7 *98:8 0.000375038
8 *98:9 2.20611e-05
9 *98:10 0.000375038

*RES
1 *98:12 *766:Q 1.4
2 *98:11 *766:D 1.4
3 *98:10 *98:12 1.4
4 *98:9 *98:11 1.4
5 *98:8 *98:10 2.11291
6 *98:7 *98:9 0.124289
7 *98:6 *98:8 1.4
8 *98:5 *98:7 1.4
9 *98:5 *98:6 0.248577
10 *98:4 *98:5 1.24283
11 *98:3 *98:4 1.4
12 *98:2 *98:3 0.124283
13 *98:1 *98:2 1.4
14 *1077:B0 *98:1 1.4
*END

*D_NET *99 0.0013748

*CONN
*I *765:D I *C 75.255 49.735 *L 0.00183 *D SDFFQX1
*I *1053:B0 I *C 74.095 47.415 *L 0.00265 *D AOI22X1
*I *765:Q O *C 70.035 49.155 *L 0 *D SDFFQX1

*CAP
1 *99:1 2.16089e-05
2 *99:2 2.16089e-05
3 *99:3 0.000104735
4 *99:4 0.000104735
5 *99:5 6.48267e-05
6 *99:6 0.00019448
7 *99:7 0.000366574
8 *99:8 0.000129653
9 *99:9 0.000366574

*RES
1 *99:11 *765:Q 1.4
2 *99:9 *99:11 1.4
3 *99:8 *1053:B0 1.4
4 *99:7 *99:9 1.74004
5 *99:6 *99:8 0.745701
6 *99:6 *99:7 1.4
7 *99:5 *99:6 0.37285
8 *99:4 *99:5 1.4
9 *99:3 *99:4 0.497155
10 *99:2 *99:3 1.4
11 *99:1 *99:2 0.124283
12 *765:D *99:1 1.4
*END

*D_NET *100 0.00167674

*CONN
*I *1068:B0 I *C 115.855 70.325 *L 0.00265 *D AOI22X1
*I *764:Q O *C 119.045 68.585 *L 0 *D SDFFQX1
*I *764:D I *C 124.265 68.005 *L 0.00183 *D SDFFQX1

*CAP
1 *100:2 0.000242672
2 *100:3 0.000242672
3 *100:4 0.000148949
4 *100:5 0.000198598
5 *100:7 4.96496e-05
6 *100:8 0.000397099
7 *100:9 0.000397099

*RES
1 *100:10 *764:D 1.4
2 *100:9 *100:10 1.4
3 *100:8 *100:9 2.2372
4 *100:7 *100:8 1.4
5 *100:5 *100:7 0.248577
6 *100:5 *764:Q 1.4
7 *100:4 *100:5 0.745732
8 *100:3 *100:4 1.4
9 *100:2 *100:3 1.36718
10 *100:1 *100:2 1.4
11 *1068:B0 *100:1 1.4
*END

*D_NET *101 0.00324312

*CONN
*I *1112:B0 I *C 107.155 68.295 *L 0.00265 *D AOI22X1
*I *763:D I *C 119.335 65.395 *L 0.00183 *D SDFFQX1
*I *763:Q O *C 124.555 64.815 *L 0 *D SDFFQX1

*CAP
1 *101:1 0.000248248
2 *101:2 0.000248248
3 *101:3 0.000926564
4 *101:4 0.00132366
5 *101:5 0.000397099
6 *101:7 4.96496e-05
7 *101:9 4.96496e-05

*RES
1 *101:9 *763:Q 1.4
2 *101:7 *101:9 0.248577
3 *101:6 *763:D 1.4
4 *101:5 *101:7 1.4
5 *101:4 *101:6 1.4
6 *101:4 *101:5 2.2372
7 *101:3 *101:4 5.22013
8 *101:2 *101:3 1.4
9 *101:1 *101:2 1.24289
10 *1112:B0 *101:1 1.4
*END

*D_NET *102 0.00188246

*CONN
*I *1052:B0 I *C 112.552 109.692 *L 0.00163 *D AOI222XL
*I *762:D I *C 118.175 107.155 *L 0.00183 *D SDFFQX1
*I *762:Q O *C 123.395 106.575 *L 0 *D SDFFQX1

*CAP
1 *102:1 6.96506e-06
2 *102:2 1.13974e-05
3 *102:3 4.43231e-06
4 *102:4 0.000306803
5 *102:5 0.000306803
6 *102:6 0.000146899
7 *102:7 0.000146899
8 *102:8 5.75256e-05
9 *102:9 0.000402679
10 *102:10 0.000345154
11 *102:11 1.83624e-05
12 *102:12 5.50873e-05
13 *102:13 1.83624e-05
14 *102:14 5.50873e-05

*RES
1 *102:14 *762:Q 1.4
2 *102:13 *762:D 1.4
3 *102:12 *102:14 0.372864
4 *102:11 *102:13 0.124288
5 *102:10 *102:12 1.4
6 *102:9 *102:11 1.4
7 *102:9 *102:10 2.2371
8 *102:8 *102:9 0.37285
9 *102:7 *102:8 1.4
10 *102:6 *102:7 0.994304
11 *102:5 *102:6 1.4
12 *102:4 *102:5 1.98853
13 *102:3 *102:4 1.4
14 *102:2 *102:3 0.0300006
15 *102:1 *102:2 0.0471437
16 *1052:B0 *102:1 1.4
*END

*D_NET *103 0.0029246

*CONN
*I *761:D I *C 101.355 117.595 *L 0.00183 *D SDFFQX1
*I *761:Q O *C 96.135 117.015 *L 0 *D SDFFQX1
*I *1350:A0 I *C 99.615 104.545 *L 0.00158 *D AO22XL

*CAP
1 *103:1 2.04665e-05
2 *103:2 2.04665e-05
3 *103:3 0.000100075
4 *103:4 0.000100075
5 *103:5 6.13994e-05
6 *103:6 0.000941457
7 *103:7 0.000350263
8 *103:8 0.000880058
9 *103:9 0.000350263
10 *103:10 5.00376e-05
11 *103:12 5.00376e-05

*RES
1 *103:14 *1350:A0 1.4
2 *103:12 *103:14 1.4
3 *103:11 *761:Q 1.4
4 *103:10 *103:12 0.248566
5 *103:9 *103:11 1.4
6 *103:8 *103:10 1.4
7 *103:7 *103:9 1.73996
8 *103:6 *103:8 5.34442
9 *103:6 *103:7 1.4
10 *103:5 *103:6 0.372866
11 *103:4 *103:5 1.4
12 *103:3 *103:4 0.497132
13 *103:2 *103:3 1.4
14 *103:1 *103:2 0.124289
15 *761:D *103:1 1.4
*END

*D_NET *104 0.00153264

*CONN
*I *760:D I *C 63.945 68.005 *L 0.00183 *D SDFFQX1
*I *1348:A0 I *C 59.885 70.615 *L 0.00158 *D AO22XL
*I *760:Q O *C 58.725 68.585 *L 0 *D SDFFQX1

*CAP
1 *104:1 4.82399e-05
2 *104:2 4.82399e-05
3 *104:3 0.000315071
4 *104:4 0.000315071
5 *104:5 2.412e-05
6 *104:6 0.00016884
7 *104:7 0.00014472
8 *104:8 0.000157535
9 *104:9 5.25118e-05
10 *104:10 0.000157535
11 *104:11 5.25118e-05
12 *104:12 2.412e-05
13 *104:14 2.412e-05

*RES
1 *104:14 *760:Q 1.4
2 *104:13 *1348:A0 1.4
3 *104:12 *104:14 0.124284
4 *104:11 *104:13 1.4
5 *104:10 *104:12 1.4
6 *104:9 *104:11 0.248566
7 *104:8 *104:10 0.745697
8 *104:7 *104:9 1.4
9 *104:6 *104:8 1.4
10 *104:6 *104:7 0.745701
11 *104:5 *104:6 0.124284
12 *104:4 *104:5 1.4
13 *104:3 *104:4 1.49139
14 *104:2 *104:3 1.4
15 *104:1 *104:2 0.248567
16 *760:D *104:1 1.4
*END

*D_NET *105 0.00176866

*CONN
*I *759:D I *C 72.355 114.985 *L 0.00183 *D SDFFQX1
*I *1062:B0 I *C 69.745 110.055 *L 0.00265 *D AOI22X1
*I *759:Q O *C 67.135 115.565 *L 0 *D SDFFQX1

*CAP
1 *105:1 4.09545e-05
2 *105:2 4.09545e-05
3 *105:3 0.000227153
4 *105:4 0.000227153
5 *105:5 0.000348114
6 *105:6 4.09545e-05
7 *105:7 0.000307159
8 *105:8 0.000227153
9 *105:10 0.000227153
10 *105:11 4.09545e-05
11 *105:12 4.09545e-05

*RES
1 *105:12 *759:Q 1.4
2 *105:11 *105:12 0.248567
3 *105:10 *105:11 1.4
4 *105:8 *105:10 1.11855
5 *105:7 *1062:B0 1.4
6 *105:6 *105:8 1.4
7 *105:5 *105:7 1.86425
8 *105:5 *105:6 0.248567
9 *105:4 *105:5 1.4
10 *105:3 *105:4 1.11855
11 *105:2 *105:3 1.4
12 *105:1 *105:2 0.248567
13 *759:D *105:1 1.4
*END

*D_NET *106 0.00234438

*CONN
*I *758:D I *C 46.545 117.595 *L 0.00183 *D SDFFQX1
*I *981:A0 I *C 51.53 106.853 *L 0.00263 *D AOI211X1
*I *758:Q O *C 51.765 117.015 *L 0 *D SDFFQX1

*CAP
1 *106:1 1.97822e-05
2 *106:2 1.97822e-05
3 *106:3 0.000374238
4 *106:4 0.000374238
5 *106:5 5.93466e-05
6 *106:6 0.000752406
7 *106:7 2.2014e-05
8 *106:8 0.000696811
9 *106:9 2.2014e-05
10 *106:10 3.7518e-06

*RES
1 *106:11 *758:Q 1.4
2 *106:10 *981:A0 1.4
3 *106:9 *106:11 1.4
4 *106:8 *106:10 0.0235709
5 *106:7 *106:9 0.124289
6 *106:6 *106:8 4.3542
7 *106:6 *106:7 1.4
8 *106:5 *106:6 0.37285
9 *106:4 *106:5 1.4
10 *106:3 *106:4 2.11291
11 *106:2 *106:3 1.4
12 *106:1 *106:2 0.124283
13 *758:D *106:1 1.4
*END

*D_NET *107 0.000982322

*CONN
*I *757:D I *C 18.415 107.155 *L 0.00183 *D SDFFQX1
*I *1145:A0 I *C 18.415 104.545 *L 0.00264 *D AOI22X1
*I *757:Q O *C 13.195 106.575 *L 0 *D SDFFQX1

*CAP
1 *107:1 5.1861e-05
2 *107:2 0.000155583
3 *107:3 0.000318291
4 *107:4 0.000103722
5 *107:5 0.000318291
6 *107:7 1.7287e-05
7 *107:8 1.7287e-05

*RES
1 *107:8 *757:Q 1.4
2 *107:7 *107:8 0.124288
3 *107:5 *107:7 1.4
4 *107:4 *1145:A0 1.4
5 *107:3 *107:5 2.2371
6 *107:2 *107:4 0.745726
7 *107:2 *107:3 1.4
8 *107:1 *107:2 0.372863
9 *757:D *107:1 1.4
*END

*D_NET *108 0.0016574

*CONN
*I *756:D I *C 17.835 91.495 *L 0.00183 *D SDFFQX1
*I *756:Q O *C 12.615 90.915 *L 0 *D SDFFQX1
*I *1179:A0 I *C 15.515 86.275 *L 0.00265 *D OAI22X1

*CAP
1 *108:1 2.10222e-05
2 *108:2 2.10222e-05
3 *108:3 0.000183426
4 *108:4 0.000183426
5 *108:5 4.20444e-05
6 *108:6 0.000399422
7 *108:7 0.000183426
8 *108:8 0.000357377
9 *108:9 0.000183426
10 *108:10 2.03807e-05
11 *108:11 2.10222e-05
12 *108:12 2.03807e-05
13 *108:13 2.10222e-05

*RES
1 *108:14 *1179:A0 1.4
2 *108:13 *756:Q 1.4
3 *108:12 *108:14 1.4
4 *108:11 *108:13 0.124283
5 *108:10 *108:12 0.124283
6 *108:9 *108:11 1.4
7 *108:8 *108:10 1.4
8 *108:7 *108:9 1.11855
9 *108:6 *108:8 2.11281
10 *108:6 *108:7 1.4
11 *108:5 *108:6 0.248565
12 *108:4 *108:5 1.4
13 *108:3 *108:4 1.11855
14 *108:2 *108:3 1.4
15 *108:1 *108:2 0.124283
16 *756:D *108:1 1.4
*END

*D_NET *109 0.00133024

*CONN
*I *1184:A0 I *C 17.545 54.955 *L 0.00264 *D AOI22X1
*I *755:D I *C 18.125 57.565 *L 0.00183 *D SDFFQX1
*I *755:Q O *C 12.905 58.145 *L 0 *D SDFFQX1

*CAP
1 *109:2 2.06397e-05
2 *109:3 2.06397e-05
3 *109:4 0.00022747
4 *109:5 0.00022747
5 *109:6 0.000371515
6 *109:7 6.19192e-05
7 *109:8 0.000309596
8 *109:9 2.2747e-05
9 *109:10 2.2747e-05
10 *109:11 2.2747e-05
11 *109:12 2.2747e-05

*RES
1 *109:12 *755:Q 1.4
2 *109:11 *755:D 1.4
3 *109:10 *109:12 0.124284
4 *109:9 *109:11 0.124284
5 *109:8 *109:10 1.4
6 *109:7 *109:9 1.4
7 *109:6 *109:8 1.86425
8 *109:6 *109:7 0.372849
9 *109:5 *109:6 1.4
10 *109:4 *109:5 1.24284
11 *109:3 *109:4 1.4
12 *109:2 *109:3 0.124283
13 *109:1 *109:2 1.4
14 *1184:A0 *109:1 1.4
*END

*D_NET *110 0.00133445

*CONN
*I *754:D I *C 17.545 65.395 *L 0.00183 *D SDFFQX1
*I *1133:A0 I *C 14.355 68.295 *L 0.00264 *D AOI221X1
*I *754:Q O *C 12.325 64.815 *L 0 *D SDFFQX1

*CAP
1 *110:1 2.2747e-05
2 *110:2 2.2747e-05
3 *110:3 0.000227037
4 *110:4 0.000227037
5 *110:5 0.000272964
6 *110:6 0.000250217
7 *110:7 2.2747e-05
8 *110:9 0.000144478
9 *110:10 0.000144478

*RES
1 *110:11 *754:Q 1.4
2 *110:10 *110:11 1.4
3 *110:9 *110:10 0.869982
4 *110:7 *110:9 1.4
5 *110:6 *1133:A0 1.4
6 *110:5 *110:7 0.124284
7 *110:5 *110:6 1.36712
8 *110:4 *110:5 1.4
9 *110:3 *110:4 1.36711
10 *110:2 *110:3 1.4
11 *110:1 *110:2 0.124284
12 *754:D *110:1 1.4
*END

*D_NET *111 0.00128546

*CONN
*I *1006:A0 I *C 56.985 33.785 *L 0.00264 *D AOI221X1
*I *783:D I *C 56.985 31.465 *L 0.00183 *D SDFFQX1
*I *783:Q O *C 51.765 32.045 *L 0 *D SDFFQX1

*CAP
1 *111:1 0.000129653
2 *111:2 0.000172871
3 *111:3 0.000469857
4 *111:4 4.32178e-05
5 *111:5 0.000469857

*RES
1 *111:7 *783:Q 1.4
2 *111:5 *111:7 1.4
3 *111:4 *783:D 1.4
4 *111:3 *111:5 2.23719
5 *111:2 *111:4 0.248567
6 *111:2 *111:3 1.4
7 *111:1 *111:2 0.745701
8 *1006:A0 *111:1 1.4
*END

*D_NET *112 0.00182711

*CONN
*I *782:D I *C 98.745 28.855 *L 0.00183 *D SDFFQX1
*I *1090:A0 I *C 93.525 34.075 *L 0.00264 *D AOI22X1
*I *782:Q O *C 93.525 28.275 *L 0 *D SDFFQX1

*CAP
1 *112:1 2.16395e-05
2 *112:2 2.16395e-05
3 *112:3 0.000459124
4 *112:4 0.000459124
5 *112:5 0.000432789
6 *112:6 0.00041115
7 *112:7 2.16395e-05

*RES
1 *112:7 *782:Q 1.4
2 *112:6 *1090:A0 1.4
3 *112:5 *112:7 0.124289
4 *112:5 *112:6 2.36149
5 *112:4 *112:5 1.4
6 *112:3 *112:4 2.2372
7 *112:2 *112:3 1.4
8 *112:1 *112:2 0.124289
9 *782:D *112:1 1.4
*END

*D_NET *113 0.0024192

*CONN
*I *781:D I *C 98.745 31.465 *L 0.00183 *D SDFFQX1
*I *781:Q O *C 93.525 32.045 *L 0 *D SDFFQX1
*I *1074:A0 I *C 89.175 34.075 *L 0.00264 *D AOI22X1

*CAP
1 *113:1 2.16395e-05
2 *113:2 2.16395e-05
3 *113:3 0.000433617
4 *113:4 0.000433617
5 *113:5 0.000194755
6 *113:6 0.000194755
7 *113:7 2.55069e-05
8 *113:8 0.00040811
9 *113:9 0.000129837
10 *113:10 0.000382604
11 *113:11 0.000129837
12 *113:12 2.16395e-05
13 *113:14 2.16395e-05

*RES
1 *113:14 *1074:A0 1.4
2 *113:12 *113:14 0.124289
3 *113:11 *781:Q 1.4
4 *113:10 *113:12 1.4
5 *113:9 *113:11 0.745732
6 *113:8 *113:10 1.86433
7 *113:8 *113:9 1.4
8 *113:7 *113:8 0.124289
9 *113:6 *113:7 1.4
10 *113:5 *113:6 1.1186
11 *113:4 *113:5 1.4
12 *113:3 *113:4 2.11291
13 *113:2 *113:3 1.4
14 *113:1 *113:2 0.124289
15 *781:D *113:1 1.4
*END

*D_NET *114 0.0015319

*CONN
*I *1082:A0 I *C 74.675 34.075 *L 0.00264 *D AOI22X1
*I *780:D I *C 73.805 31.465 *L 0.00183 *D SDFFQX1
*I *780:Q O *C 68.585 32.045 *L 0 *D SDFFQX1

*CAP
1 *114:1 0.000129653
2 *114:2 0.000129653
3 *114:3 7.85515e-05
4 *114:4 0.000549861
5 *114:5 6.48267e-05
6 *114:6 0.000471309
7 *114:7 6.48267e-05
8 *114:8 2.16089e-05
9 *114:10 2.16089e-05

*RES
1 *114:10 *780:Q 1.4
2 *114:8 *114:10 0.124283
3 *114:7 *780:D 1.4
4 *114:6 *114:8 1.4
5 *114:5 *114:7 0.37285
6 *114:4 *114:6 2.2372
7 *114:4 *114:5 1.4
8 *114:3 *114:4 0.372866
9 *114:2 *114:3 1.4
10 *114:1 *114:2 0.745701
11 *1082:A0 *114:1 1.4
*END

*D_NET *115 0.00146713

*CONN
*I *779:D I *C 94.975 94.105 *L 0.00183 *D SDFFQX1
*I *1108:A0 I *C 93.815 91.495 *L 0.00264 *D AOI22X1
*I *779:Q O *C 89.755 94.685 *L 0 *D SDFFQX1

*CAP
1 *115:2 0.000102783
2 *115:3 0.000102783
3 *115:4 0.000271041
4 *115:5 4.92801e-05
5 *115:6 0.00022176
6 *115:7 0.000359741
7 *115:9 0.000359741

*RES
1 *115:10 *779:Q 1.4
2 *115:9 *115:10 1.4
3 *115:7 *115:9 1.73996
4 *115:6 *1108:A0 1.4
5 *115:5 *115:7 1.4
6 *115:4 *115:6 1.1186
7 *115:4 *115:5 0.248577
8 *115:3 *115:4 1.4
9 *115:2 *115:3 0.497131
10 *115:1 *115:2 1.4
11 *779:D *115:1 1.4
*END

*D_NET *116 0.00155888

*CONN
*I *1005:B0 I *C 92.075 78.735 *L 0.00274 *D AOI221X1
*I *778:D I *C 92.655 75.835 *L 0.00183 *D SDFFQX1
*I *778:Q O *C 87.435 75.255 *L 0 *D SDFFQX1

*CAP
1 *116:2 2.56958e-05
2 *116:3 2.56958e-05
3 *116:4 0.000236363
4 *116:5 0.000259822
5 *116:6 2.61369e-05
6 *116:7 2.34591e-05
7 *116:8 2.61369e-05
8 *116:9 0.000444327
9 *116:11 0.000444327
10 *116:13 2.34591e-05
11 *116:14 2.34591e-05

*RES
1 *116:14 *778:Q 1.4
2 *116:13 *116:14 0.124288
3 *116:11 *116:13 1.4
4 *116:10 *778:D 1.4
5 *116:9 *116:11 2.11291
6 *116:8 *116:10 1.4
7 *116:7 *116:9 1.4
8 *116:6 *116:8 0.124289
9 *116:5 *116:7 0.124288
10 *116:5 *116:6 1.4
11 *116:4 *116:5 1.24288
12 *116:3 *116:4 1.4
13 *116:2 *116:3 0.124283
14 *116:1 *116:2 1.4
15 *1005:B0 *116:1 1.4
*END

*D_NET *117 0.00227878

*CONN
*I *777:D I *C 95.555 122.815 *L 0.00183 *D SDFFQX1
*I *777:Q O *C 90.335 122.235 *L 0 *D SDFFQX1
*I *1075:B0 I *C 91.785 115.275 *L 0.00265 *D AOI22X1

*CAP
1 *117:1 4.09329e-05
2 *117:2 4.09329e-05
3 *117:3 0.0004003
4 *117:4 0.0004003
5 *117:5 8.18659e-05
6 *117:6 0.000573061
7 *117:7 5.00376e-05
8 *117:8 0.000491195
9 *117:9 5.00376e-05
10 *117:10 7.50563e-05
11 *117:12 7.50563e-05

*RES
1 *117:14 *1075:B0 1.4
2 *117:12 *117:14 1.4
3 *117:11 *777:Q 1.4
4 *117:10 *117:12 0.372849
5 *117:9 *117:11 1.4
6 *117:8 *117:10 1.4
7 *117:7 *117:9 0.248566
8 *117:6 *117:8 2.98293
9 *117:6 *117:7 1.4
10 *117:5 *117:6 0.497155
11 *117:4 *117:5 1.4
12 *117:3 *117:4 1.98853
13 *117:2 *117:3 1.4
14 *117:1 *117:2 0.248578
15 *777:D *117:1 1.4
*END

*D_NET *118 0.00196493

*CONN
*I *776:D I *C 87.145 122.815 *L 0.00183 *D SDFFQX1
*I *1345:B0 I *C 86.855 115.275 *L 0.00274 *D AOI221X1
*I *776:Q O *C 81.925 122.235 *L 0 *D SDFFQX1

*CAP
1 *118:2 2.50188e-05
2 *118:3 2.50188e-05
3 *118:4 4.09329e-05
4 *118:5 0.000532128
5 *118:6 0.000425319
6 *118:7 0.000491195
7 *118:8 0.000425319

*RES
1 *118:10 *776:Q 1.4
2 *118:8 *118:10 1.4
3 *118:7 *1345:B0 1.4
4 *118:6 *118:8 2.11281
5 *118:5 *118:7 2.98293
6 *118:5 *118:6 1.4
7 *118:4 *118:5 0.248578
8 *118:3 *118:4 1.4
9 *118:2 *118:3 0.124283
10 *118:1 *118:2 1.4
11 *776:D *118:1 1.4
*END

*D_NET *119 0.00142749

*CONN
*I *775:D I *C 73.225 65.395 *L 0.00183 *D SDFFQX1
*I *1347:B0 I *C 76.415 67.715 *L 0.00171 *D AO22XL
*I *775:Q O *C 78.445 64.815 *L 0 *D SDFFQX1

*CAP
1 *119:2 0.000288815
2 *119:3 0.000288815
3 *119:4 0.0002412
4 *119:5 0.00019296
5 *119:6 4.82399e-05
6 *119:8 0.000183732
7 *119:9 0.000183732

*RES
1 *119:10 *775:Q 1.4
2 *119:9 *119:10 1.4
3 *119:8 *119:9 0.869983
4 *119:6 *119:8 1.4
5 *119:5 *1347:B0 1.4
6 *119:4 *119:6 0.248567
7 *119:4 *119:5 0.994268
8 *119:3 *119:4 1.4
9 *119:2 *119:3 1.36711
10 *119:1 *119:2 1.4
11 *775:D *119:1 1.4
*END

*D_NET *120 0.00190105

*CONN
*I *774:D I *C 76.125 122.815 *L 0.00183 *D SDFFQX1
*I *774:Q O *C 70.905 122.235 *L 0 *D SDFFQX1
*I *1064:B0 I *C 71.195 117.305 *L 0.00265 *D AOI22X1

*CAP
1 *120:1 4.09545e-05
2 *120:2 4.09545e-05
3 *120:3 0.000454306
4 *120:4 0.000454306
5 *120:5 8.19091e-05
6 *120:6 0.000430023
7 *120:8 0.000348114
8 *120:9 2.52392e-05
9 *120:10 2.52392e-05

*RES
1 *120:11 *1064:B0 1.4
2 *120:10 *120:11 1.4
3 *120:9 *120:10 0.124283
4 *120:8 *120:9 1.4
5 *120:6 *120:8 2.11282
6 *120:6 *774:Q 1.4
7 *120:5 *120:6 0.497134
8 *120:4 *120:5 1.4
9 *120:3 *120:4 2.23709
10 *120:2 *120:3 1.4
11 *120:1 *120:2 0.248567
12 *774:D *120:1 1.4
*END

*D_NET *121 0.00169627

*CONN
*I *773:D I *C 57.855 122.815 *L 0.00183 *D SDFFQX1
*I *773:Q O *C 52.635 122.235 *L 0 *D SDFFQX1
*I *1092:A0 I *C 56.985 117.595 *L 0.00264 *D AOI22X1

*CAP
1 *121:2 5.04785e-05
2 *121:3 5.04785e-05
3 *121:4 4.09545e-05
4 *121:5 0.000368591
5 *121:6 0.000403828
6 *121:7 0.000327636
7 *121:8 0.000403828
8 *121:9 2.52392e-05
9 *121:11 2.52392e-05

*RES
1 *121:13 *1092:A0 1.4
2 *121:11 *121:13 1.4
3 *121:10 *773:Q 1.4
4 *121:9 *121:11 0.124283
5 *121:8 *121:10 1.4
6 *121:7 *121:9 1.4
7 *121:6 *121:8 1.98853
8 *121:5 *121:7 1.98853
9 *121:5 *121:6 1.4
10 *121:4 *121:5 0.248567
11 *121:3 *121:4 1.4
12 *121:2 *121:3 0.248566
13 *121:1 *121:2 1.4
14 *773:D *121:1 1.4
*END

*D_NET *122 0.00119135

*CONN
*I *1144:A1 I *C 10.585 106.575 *L 0.00171 *D AOI22XL
*I *772:D I *C 10.005 109.765 *L 0.00183 *D SDFFQX1
*I *772:Q O *C 4.785 110.345 *L 0 *D SDFFQX1

*CAP
1 *122:1 0.000207444
2 *122:2 0.000207444
3 *122:3 3.53656e-05
4 *122:4 0.000353656
5 *122:5 1.7287e-05
6 *122:6 0.000318291
7 *122:7 1.7287e-05
8 *122:8 1.7287e-05
9 *122:10 1.7287e-05

*RES
1 *122:10 *772:Q 1.4
2 *122:8 *122:10 0.124288
3 *122:7 *772:D 1.4
4 *122:6 *122:8 1.4
5 *122:5 *122:7 0.124288
6 *122:4 *122:6 2.2371
7 *122:4 *122:5 1.4
8 *122:3 *122:4 0.248567
9 *122:2 *122:3 1.4
10 *122:1 *122:2 1.49145
11 *1144:A1 *122:1 1.4
*END

*D_NET *123 0.00123824

*CONN
*I *771:D I *C 10.005 83.665 *L 0.00183 *D SDFFQX1
*I *1174:A0 I *C 6.815 81.055 *L 0.00264 *D AOI22X1
*I *771:Q O *C 4.785 84.245 *L 0 *D SDFFQX1

*CAP
1 *123:1 2.10222e-05
2 *123:2 2.10222e-05
3 *123:3 0.000224188
4 *123:4 0.000224188
5 *123:5 0.0001892
6 *123:6 2.10222e-05
7 *123:7 0.000168178
8 *123:8 0.000142665
9 *123:10 0.000142665
10 *123:11 4.20444e-05
11 *123:12 4.20444e-05

*RES
1 *123:12 *771:Q 1.4
2 *123:11 *123:12 0.248565
3 *123:10 *123:11 1.4
4 *123:8 *123:10 0.869982
5 *123:7 *1174:A0 1.4
6 *123:6 *123:8 1.4
7 *123:5 *123:7 0.994261
8 *123:5 *123:6 0.124283
9 *123:4 *123:5 1.4
10 *123:3 *123:4 1.36711
11 *123:2 *123:3 1.4
12 *123:1 *123:2 0.124283
13 *771:D *123:1 1.4
*END

*D_NET *124 0.00113542

*CONN
*I *770:D I *C 18.995 41.905 *L 0.00183 *D SDFFQX1
*I *770:Q O *C 13.775 42.485 *L 0 *D SDFFQX1
*I *1183:A0 I *C 15.515 44.515 *L 0.00264 *D AOI22X1

*CAP
1 *124:1 2.00855e-05
2 *124:2 2.00855e-05
3 *124:3 0.000224017
4 *124:4 0.000224017
5 *124:5 2.00855e-05
6 *124:6 0.000160684
7 *124:7 0.000140599
8 *124:8 0.000142556
9 *124:9 2.03652e-05
10 *124:10 0.000142556
11 *124:11 2.03652e-05

*RES
1 *124:13 *1183:A0 1.4
2 *124:12 *770:Q 1.4
3 *124:11 *124:13 1.4
4 *124:10 *124:12 1.4
5 *124:9 *124:11 0.124283
6 *124:8 *124:10 0.869982
7 *124:7 *124:9 1.4
8 *124:6 *124:8 1.4
9 *124:6 *124:7 0.869983
10 *124:5 *124:6 0.124283
11 *124:4 *124:5 1.4
12 *124:3 *124:4 1.36711
13 *124:2 *124:3 1.4
14 *124:1 *124:2 0.124283
15 *770:D *124:1 1.4
*END

*D_NET *125 0.00228431

*CONN
*I *1136:A0 I *C 13.485 81.055 *L 0.00264 *D AOI22X1
*I *769:D I *C 9.715 75.835 *L 0.00183 *D SDFFQX1
*I *769:Q O *C 4.495 75.255 *L 0 *D SDFFQX1

*CAP
1 *125:2 2.03807e-05
2 *125:3 2.03807e-05
3 *125:4 0.000370314
4 *125:5 0.000370314
5 *125:6 0.000288956
6 *125:7 0.000660471
7 *125:8 2.2747e-05
8 *125:9 0.000371515
9 *125:10 2.2747e-05
10 *125:11 6.82411e-05
11 *125:13 6.82411e-05

*RES
1 *125:13 *769:Q 1.4
2 *125:11 *125:13 0.372851
3 *125:10 *769:D 1.4
4 *125:9 *125:11 1.4
5 *125:8 *125:10 0.124284
6 *125:7 *125:9 2.2371
7 *125:7 *125:8 1.4
8 *125:6 *125:7 1.73996
9 *125:5 *125:6 1.4
10 *125:4 *125:5 2.11281
11 *125:3 *125:4 1.4
12 *125:2 *125:3 0.124283
13 *125:1 *125:2 1.4
14 *1136:A0 *125:1 1.4
*END

*D_NET *126 0.00186614

*CONN
*I *798:D I *C 56.695 28.855 *L 0.00183 *D SDFFQX1
*I *1006:B0 I *C 55.535 33.785 *L 0.00274 *D AOI221X1
*I *798:Q O *C 51.475 28.275 *L 0 *D SDFFQX1

*CAP
1 *126:1 4.32178e-05
2 *126:2 4.32178e-05
3 *126:3 0.000104735
4 *126:4 0.000104735
5 *126:5 0.000345742
6 *126:6 0.000324133
7 *126:7 2.16089e-05
8 *126:9 0.000364153
9 *126:10 0.000364153
10 *126:11 7.52231e-05
11 *126:12 7.52231e-05

*RES
1 *126:12 *798:Q 1.4
2 *126:11 *126:12 0.372866
3 *126:10 *126:11 1.4
4 *126:9 *126:10 1.74003
5 *126:7 *126:9 1.4
6 *126:6 *1006:B0 1.4
7 *126:5 *126:7 0.124283
8 *126:5 *126:6 1.86425
9 *126:4 *126:5 1.4
10 *126:3 *126:4 0.497155
11 *126:2 *126:3 1.4
12 *126:1 *126:2 0.248567
13 *798:D *126:1 1.4
*END

*D_NET *127 0.00178383

*CONN
*I *797:D I *C 87.435 28.855 *L 0.00183 *D SDFFQX1
*I *1090:B0 I *C 92.365 33.785 *L 0.00265 *D AOI22X1
*I *797:Q O *C 92.655 28.275 *L 0 *D SDFFQX1

*CAP
1 *127:1 2.16395e-05
2 *127:2 2.16395e-05
3 *127:3 0.000433617
4 *127:4 0.000433617
5 *127:5 0.00041115
6 *127:6 0.00038951
7 *127:7 2.16395e-05
8 *127:9 2.55069e-05
9 *127:10 2.55069e-05

*RES
1 *127:11 *797:Q 1.4
2 *127:10 *127:11 1.4
3 *127:9 *127:10 0.124289
4 *127:7 *127:9 1.4
5 *127:6 *1090:B0 1.4
6 *127:5 *127:7 0.124289
7 *127:5 *127:6 2.2372
8 *127:4 *127:5 1.4
9 *127:3 *127:4 2.11291
10 *127:2 *127:3 1.4
11 *127:1 *127:2 0.124289
12 *797:D *127:1 1.4
*END

*D_NET *128 0.00130776

*CONN
*I *796:D I *C 90.335 31.465 *L 0.00183 *D SDFFQX1
*I *1074:B0 I *C 88.015 33.785 *L 0.00265 *D AOI22X1
*I *796:Q O *C 85.115 32.045 *L 0 *D SDFFQX1

*CAP
1 *128:2 0.000178548
2 *128:3 0.000178548
3 *128:4 6.49184e-05
4 *128:5 6.49184e-05
5 *128:6 2.55069e-05
6 *128:7 0.000280576
7 *128:8 0.000108197
8 *128:9 0.000255069
9 *128:10 0.000108197
10 *128:11 2.16395e-05
11 *128:13 2.16395e-05

*RES
1 *128:13 *796:Q 1.4
2 *128:11 *128:13 0.124289
3 *128:10 *1074:B0 1.4
4 *128:9 *128:11 1.4
5 *128:8 *128:10 0.621444
6 *128:7 *128:9 1.24289
7 *128:7 *128:8 1.4
8 *128:6 *128:7 0.124289
9 *128:5 *128:6 1.4
10 *128:4 *128:5 0.372866
11 *128:3 *128:4 1.4
12 *128:2 *128:3 0.870021
13 *128:1 *128:2 1.4
14 *796:D *128:1 1.4
*END

*D_NET *129 0.00185019

*CONN
*I *1082:B0 I *C 73.515 33.785 *L 0.00265 *D AOI22X1
*I *795:D I *C 73.515 28.855 *L 0.00183 *D SDFFQX1
*I *795:Q O *C 68.295 28.275 *L 0 *D SDFFQX1

*CAP
1 *129:1 0.000367351
2 *129:2 0.000432178
3 *129:4 6.48267e-05
4 *129:5 0.000471309
5 *129:6 0.000471309
6 *129:7 2.16089e-05
7 *129:8 2.16089e-05

*RES
1 *129:8 *795:Q 1.4
2 *129:7 *129:8 0.124283
3 *129:6 *129:7 1.4
4 *129:5 *129:6 2.2372
5 *129:4 *129:5 1.4
6 *129:2 *129:4 0.37285
7 *129:2 *795:D 1.4
8 *129:1 *129:2 2.11282
9 *1082:B0 *129:1 1.4
*END

*D_NET *130 0.00157625

*CONN
*I *1141:B0 I *C 82.505 89.175 *L 0.00265 *D AOI22X1
*I *794:Q O *C 83.955 90.915 *L 0 *D SDFFQX1
*I *794:D I *C 89.175 91.495 *L 0.00183 *D SDFFQX1

*CAP
1 *130:2 7.70873e-05
2 *130:3 7.70873e-05
3 *130:4 0.00014784
4 *130:5 0.00014784
5 *130:6 5.13916e-05
6 *130:7 5.13916e-05
7 *130:8 2.46401e-05
8 *130:9 2.46401e-05
9 *130:11 0.000462524
10 *130:12 0.000462524
11 *130:13 2.46401e-05
12 *130:14 2.46401e-05

*RES
1 *130:14 *794:D 1.4
2 *130:13 *130:14 0.124289
3 *130:12 *130:13 1.4
4 *130:11 *130:12 2.23709
5 *130:9 *130:11 1.4
6 *130:8 *794:Q 1.4
7 *130:8 *130:9 0.124289
8 *130:7 *130:8 1.4
9 *130:6 *130:7 0.248566
10 *130:5 *130:6 1.4
11 *130:4 *130:5 0.745732
12 *130:3 *130:4 1.4
13 *130:2 *130:3 0.372849
14 *130:1 *130:2 1.4
15 *1141:B0 *130:1 1.4
*END

*D_NET *131 0.00136857

*CONN
*I *793:D I *C 88.595 81.055 *L 0.00183 *D SDFFQX1
*I *1127:A I *C 88.595 78.445 *L 0.00157 *D NAND2XL
*I *793:Q O *C 93.815 80.475 *L 0 *D SDFFQX1

*CAP
1 *131:1 4.92801e-05
2 *131:2 0.00022176
3 *131:3 0.000462524
4 *131:4 0.00017248
5 *131:5 0.000462524

*RES
1 *131:7 *793:Q 1.4
2 *131:5 *131:7 1.4
3 *131:4 *1127:A 1.4
4 *131:3 *131:5 2.23709
5 *131:2 *131:4 0.870021
6 *131:2 *131:3 1.4
7 *131:1 *131:2 0.248577
8 *793:D *131:1 1.4
*END

*D_NET *132 0.00151641

*CONN
*I *792:D I *C 85.405 99.325 *L 0.00183 *D SDFFQX1
*I *792:Q O *C 80.185 99.905 *L 0 *D SDFFQX1
*I *1143:A0 I *C 80.185 96.715 *L 0.00158 *D AO22XL

*CAP
1 *132:1 2.46401e-05
2 *132:2 2.46401e-05
3 *132:3 0.000462524
4 *132:4 0.000462524
5 *132:5 0.000271041
6 *132:6 7.39202e-05
7 *132:7 0.00019712

*RES
1 *132:7 *1143:A0 1.4
2 *132:6 *792:Q 1.4
3 *132:5 *132:7 0.99431
4 *132:5 *132:6 0.372866
5 *132:4 *132:5 1.4
6 *132:3 *132:4 2.23709
7 *132:2 *132:3 1.4
8 *132:1 *132:2 0.124289
9 *792:D *132:1 1.4
*END

*D_NET *133 0.00151467

*CONN
*I *791:D I *C 88.015 112.375 *L 0.00183 *D SDFFQX1
*I *1044:A0 I *C 85.405 110.055 *L 0.00265 *D AOI21X1
*I *791:Q O *C 82.795 111.795 *L 0 *D SDFFQX1

*CAP
1 *133:1 6.13994e-05
2 *133:2 6.13994e-05
3 *133:3 5.00376e-05
4 *133:4 5.00376e-05
5 *133:5 0.000122799
6 *133:6 0.000122799
7 *133:7 0.000175131
8 *133:8 0.0004003
9 *133:9 0.000102332
10 *133:10 0.000225169
11 *133:11 0.000102332
12 *133:12 2.04665e-05
13 *133:14 2.04665e-05

*RES
1 *133:14 *791:Q 1.4
2 *133:12 *133:14 0.124289
3 *133:11 *1044:A0 1.4
4 *133:10 *133:12 1.4
5 *133:9 *133:11 0.621444
6 *133:8 *133:10 1.11855
7 *133:8 *133:9 1.4
8 *133:7 *133:8 0.86998
9 *133:6 *133:7 1.4
10 *133:5 *133:6 0.745732
11 *133:4 *133:5 1.4
12 *133:3 *133:4 0.248566
13 *133:2 *133:3 1.4
14 *133:1 *133:2 0.372866
15 *791:D *133:1 1.4
*END

*D_NET *134 0.00186604

*CONN
*I *1347:A0 I *C 74.965 68.005 *L 0.00158 *D AO22XL
*I *790:Q O *C 76.995 63.365 *L 0 *D SDFFQX1
*I *790:D I *C 71.775 62.785 *L 0.00183 *D SDFFQX1

*CAP
1 *134:2 2.62559e-05
2 *134:3 2.62559e-05
3 *134:4 0.000385919
4 *134:5 0.000385919
5 *134:6 0.000472606
6 *134:7 0.000210047
7 *134:8 0.000262559
8 *134:10 4.82399e-05
9 *134:12 4.82399e-05

*RES
1 *134:12 *790:D 1.4
2 *134:10 *134:12 0.248567
3 *134:9 *790:Q 1.4
4 *134:8 *134:10 1.4
5 *134:7 *134:9 1.4
6 *134:6 *134:8 1.24283
7 *134:6 *134:7 0.994263
8 *134:5 *134:6 1.4
9 *134:4 *134:5 1.98854
10 *134:3 *134:4 1.4
11 *134:2 *134:3 0.124283
12 *134:1 *134:2 1.4
13 *1347:A0 *134:1 1.4
*END

*D_NET *135 0.00173264

*CONN
*I *1039:B1 I *C 74.675 96.135 *L 0.00171 *D AOI22XL
*I *789:D I *C 76.705 99.325 *L 0.00183 *D SDFFQX1
*I *789:Q O *C 71.485 99.905 *L 0 *D SDFFQX1

*CAP
1 *135:2 7.87643e-05
2 *135:3 7.87643e-05
3 *135:4 0.000266514
4 *135:5 0.000314972
5 *135:6 4.84572e-05
6 *135:7 0.000105019
7 *135:8 0.000367567
8 *135:9 0.000105019
9 *135:10 0.000367567

*RES
1 *135:12 *789:Q 1.4
2 *135:11 *789:D 1.4
3 *135:10 *135:12 1.4
4 *135:9 *135:11 1.4
5 *135:8 *135:10 1.74004
6 *135:7 *135:9 0.497155
7 *135:6 *135:8 1.4
8 *135:5 *135:7 1.4
9 *135:5 *135:6 0.248577
10 *135:4 *135:5 1.36718
11 *135:3 *135:4 1.4
12 *135:2 *135:3 0.372866
13 *135:1 *135:2 1.4
14 *1039:B1 *135:1 1.4
*END

*D_NET *136 0.00144102

*CONN
*I *788:D I *C 57.855 120.205 *L 0.00183 *D SDFFQX1
*I *1092:B0 I *C 55.825 117.305 *L 0.00265 *D AOI22X1
*I *788:Q O *C 52.635 120.785 *L 0 *D SDFFQX1

*CAP
1 *136:1 2.04773e-05
2 *136:2 2.04773e-05
3 *136:3 0.000176675
4 *136:4 0.000176675
5 *136:5 0.000245727
6 *136:6 6.14318e-05
7 *136:7 0.000184295
8 *136:8 0.000277632
9 *136:10 0.000277632

*RES
1 *136:11 *788:Q 1.4
2 *136:10 *136:11 1.4
3 *136:8 *136:10 1.36711
4 *136:7 *1092:B0 1.4
5 *136:6 *136:8 1.4
6 *136:5 *136:7 1.11855
7 *136:5 *136:6 0.37285
8 *136:4 *136:5 1.4
9 *136:3 *136:4 0.86998
10 *136:2 *136:3 1.4
11 *136:1 *136:2 0.124283
12 *788:D *136:1 1.4
*END

*D_NET *137 0.0016802

*CONN
*I *1147:A1 I *C 14.645 101.355 *L 0.00171 *D AOI22XL
*I *787:D I *C 10.005 99.325 *L 0.00183 *D SDFFQX1
*I *787:Q O *C 4.785 99.905 *L 0 *D SDFFQX1

*CAP
1 *137:2 0.000203807
2 *137:3 0.000203807
3 *137:4 0.000105111
4 *137:5 0.000105111
5 *137:6 0.000122284
6 *137:7 0.000489137
7 *137:8 4.20444e-05
8 *137:9 0.000366853
9 *137:10 4.20444e-05

*RES
1 *137:11 *787:Q 1.4
2 *137:10 *787:D 1.4
3 *137:9 *137:11 1.4
4 *137:8 *137:10 0.248565
5 *137:7 *137:9 2.2371
6 *137:7 *137:8 1.4
7 *137:6 *137:7 0.745699
8 *137:5 *137:6 1.4
9 *137:4 *137:5 0.621413
10 *137:3 *137:4 1.4
11 *137:2 *137:3 1.24283
12 *137:1 *137:2 1.4
13 *1147:A1 *137:1 1.4
*END

*D_NET *138 0.00111082

*CONN
*I *1174:B0 I *C 5.655 80.765 *L 0.00265 *D AOI22X1
*I *786:Q O *C 4.785 79.025 *L 0 *D SDFFQX1
*I *786:D I *C 10.005 78.445 *L 0.00183 *D SDFFQX1

*CAP
1 *138:2 2.03807e-05
2 *138:3 2.03807e-05
3 *138:4 0.000126133
4 *138:5 0.000168178
5 *138:6 8.15229e-05
6 *138:7 4.20444e-05
7 *138:8 8.15229e-05
8 *138:9 0.00028533
9 *138:11 0.00028533

*RES
1 *138:13 *786:D 1.4
2 *138:11 *138:13 1.4
3 *138:10 *786:Q 1.4
4 *138:9 *138:11 1.73996
5 *138:8 *138:10 1.4
6 *138:7 *138:9 1.4
7 *138:6 *138:8 0.497132
8 *138:5 *138:7 0.248565
9 *138:5 *138:6 1.4
10 *138:4 *138:5 0.745696
11 *138:3 *138:4 1.4
12 *138:2 *138:3 0.124283
13 *138:1 *138:2 1.4
14 *1174:B0 *138:1 1.4
*END

*D_NET *139 0.00121786

*CONN
*I *785:D I *C 9.715 49.735 *L 0.00183 *D SDFFQX1
*I *1182:A0 I *C 9.135 52.345 *L 0.00264 *D AOI22X1
*I *785:Q O *C 4.495 49.155 *L 0 *D SDFFQX1

*CAP
1 *139:1 2.00855e-05
2 *139:2 2.00855e-05
3 *139:3 4.07304e-05
4 *139:4 4.07304e-05
5 *139:5 0.0001821
6 *139:6 0.000162015
7 *139:7 2.00855e-05
8 *139:9 0.000325843
9 *139:10 0.000325843
10 *139:11 4.0171e-05
11 *139:12 4.0171e-05

*RES
1 *139:12 *785:Q 1.4
2 *139:11 *139:12 0.248567
3 *139:10 *139:11 1.4
4 *139:9 *139:10 1.98853
5 *139:7 *139:9 1.4
6 *139:6 *1182:A0 1.4
7 *139:5 *139:7 0.124283
8 *139:5 *139:6 0.994266
9 *139:4 *139:5 1.4
10 *139:3 *139:4 0.248566
11 *139:2 *139:3 1.4
12 *139:1 *139:2 0.124283
13 *785:D *139:1 1.4
*END

*D_NET *140 0.00168998

*CONN
*I *1135:B0 I *C 10.295 68.295 *L 0.00265 *D AOI22X1
*I *784:D I *C 9.715 62.785 *L 0.00183 *D SDFFQX1
*I *784:Q O *C 4.495 63.365 *L 0 *D SDFFQX1

*CAP
1 *140:1 0.0003867
2 *140:2 0.0003867
3 *140:3 4.12795e-05
4 *140:4 0.000412795
5 *140:5 4.54941e-05
6 *140:6 0.000371515
7 *140:7 4.54941e-05

*RES
1 *140:8 *784:Q 1.4
2 *140:7 *784:D 1.4
3 *140:6 *140:8 1.4
4 *140:5 *140:7 0.248567
5 *140:4 *140:6 2.2371
6 *140:4 *140:5 1.4
7 *140:3 *140:4 0.248566
8 *140:2 *140:3 1.4
9 *140:1 *140:2 2.11282
10 *1135:B0 *140:1 1.4
*END

*D_NET *141 0.00180697

*CONN
*I *1105:A1 I *C 65.105 33.495 *L 0.00171 *D AOI22XL
*I *813:D I *C 65.105 28.855 *L 0.00183 *D SDFFQX1
*I *813:Q O *C 59.885 28.275 *L 0 *D SDFFQX1

*CAP
1 *141:1 0.000302524
2 *141:2 0.000345742
3 *141:3 0.000471309
4 *141:4 4.32178e-05
5 *141:5 0.000471309
6 *141:7 8.64356e-05
7 *141:8 8.64356e-05

*RES
1 *141:8 *813:Q 1.4
2 *141:7 *141:8 0.497134
3 *141:5 *141:7 1.4
4 *141:4 *813:D 1.4
5 *141:3 *141:5 2.2372
6 *141:2 *141:4 0.248567
7 *141:2 *141:3 1.4
8 *141:1 *141:2 1.73997
9 *1105:A1 *141:1 1.4
*END

*D_NET *142 0.00201871

*CONN
*I *1098:A0 I *C 107.155 36.685 *L 0.00264 *D AOI22X1
*I *812:D I *C 108.025 28.855 *L 0.00183 *D SDFFQX1
*I *812:Q O *C 102.805 28.275 *L 0 *D SDFFQX1

*CAP
1 *142:2 2.07968e-05
2 *142:3 2.07968e-05
3 *142:4 0.000547738
4 *142:5 0.000588311
5 *142:6 4.15936e-05
6 *142:7 4.05732e-05
7 *142:8 4.15936e-05
8 *142:9 0.000358654
9 *142:11 0.000358654

*RES
1 *142:13 *812:Q 1.4
2 *142:11 *142:13 1.4
3 *142:10 *812:D 1.4
4 *142:9 *142:11 1.98856
5 *142:8 *142:10 1.4
6 *142:7 *142:9 1.4
7 *142:6 *142:8 0.248566
8 *142:5 *142:7 0.248566
9 *142:5 *142:6 1.4
10 *142:4 *142:5 3.35564
11 *142:3 *142:4 1.4
12 *142:2 *142:3 0.124283
13 *142:1 *142:2 1.4
14 *1098:A0 *142:1 1.4
*END

*D_NET *143 0.00347933

*CONN
*I *811:D I *C 112.375 34.075 *L 0.00183 *D SDFFQX1
*I *1346:B0 I *C 113.938 52.2725 *L 0.00163 *D AOI222XL
*I *811:Q O *C 117.595 33.495 *L 0 *D SDFFQX1

*CAP
1 *143:1 2.02866e-05
2 *143:2 2.02866e-05
3 *143:3 0.000103984
4 *143:4 0.000103984
5 *143:5 2.02866e-05
6 *143:6 0.00129462
7 *143:7 0.000270358
8 *143:8 0.00128418
9 *143:9 0.000270358
10 *143:10 9.84431e-06
11 *143:11 4.05732e-05
12 *143:13 4.05732e-05

*RES
1 *143:13 *811:Q 1.4
2 *143:11 *143:13 0.248566
3 *143:10 *1346:B0 1.4
4 *143:9 *143:11 1.4
5 *143:8 *143:10 0.0492869
6 *143:7 *143:9 1.61568
7 *143:6 *143:8 7.79984
8 *143:6 *143:7 1.4
9 *143:5 *143:6 0.124283
10 *143:4 *143:5 1.4
11 *143:3 *143:4 0.621415
12 *143:2 *143:3 1.4
13 *143:1 *143:2 0.124283
14 *811:D *143:1 1.4
*END

*D_NET *144 0.00214524

*CONN
*I *1083:A0 I *C 78.735 34.075 *L 0.00264 *D AOI22X1
*I *810:Q O *C 76.705 26.825 *L 0 *D SDFFQXL
*I *810:D I *C 81.925 26.245 *L 0.00181 *D SDFFQXL

*CAP
1 *144:2 2.55069e-05
2 *144:3 2.55069e-05
3 *144:4 0.000540987
4 *144:5 0.000584266
5 *144:6 0.000207778
6 *144:7 4.32789e-05
7 *144:8 0.000207778
8 *144:9 0.000255069
9 *144:11 0.000255069

*RES
1 *144:13 *810:D 1.4
2 *144:11 *144:13 1.4
3 *144:10 *810:Q 1.4
4 *144:9 *144:11 1.24289
5 *144:8 *144:10 1.4
6 *144:7 *144:9 1.4
7 *144:6 *144:8 0.99431
8 *144:5 *144:7 0.248578
9 *144:5 *144:6 1.4
10 *144:4 *144:5 3.10722
11 *144:3 *144:4 1.4
12 *144:2 *144:3 0.124289
13 *144:1 *144:2 1.4
14 *1083:A0 *144:1 1.4
*END

*D_NET *145 0.00157757

*CONN
*I *809:D I *C 114.695 83.665 *L 0.00181 *D SDFFQXL
*I *809:Q O *C 109.475 84.245 *L 0 *D SDFFQXL
*I *1048:B0 I *C 106.173 83.5925 *L 0.00163 *D AOI222XL

*CAP
1 *145:1 2.29546e-05
2 *145:2 2.29546e-05
3 *145:3 0.000395262
4 *145:4 0.000395262
5 *145:5 6.88638e-05
6 *145:6 6.88638e-05
7 *145:7 0.000241549
8 *145:9 0.000241549
9 *145:10 5.145e-05
10 *145:11 6.01569e-05
11 *145:12 8.70692e-06

*RES
1 *145:12 *1048:B0 1.4
2 *145:11 *145:12 0.0471417
3 *145:10 *145:11 0.278565
4 *145:9 *145:10 1.4
5 *145:7 *145:9 1.36718
6 *145:6 *809:Q 1.4
7 *145:6 *145:7 1.4
8 *145:5 *145:6 0.372848
9 *145:4 *145:5 1.4
10 *145:3 *145:4 2.2372
11 *145:2 *145:3 1.4
12 *145:1 *145:2 0.124283
13 *809:D *145:1 1.4
*END

*D_NET *146 0.00196415

*CONN
*I *1005:A0 I *C 93.525 78.735 *L 0.00264 *D AOI221X1
*I *808:D I *C 94.975 83.665 *L 0.00181 *D SDFFQXL
*I *808:Q O *C 89.755 84.245 *L 0 *D SDFFQXL

*CAP
1 *146:2 5.13916e-05
2 *146:3 5.13916e-05
3 *146:4 0.000418881
4 *146:5 0.000468161
5 *146:6 4.92801e-05
6 *146:7 7.70873e-05
7 *146:8 0.000385437
8 *146:9 7.70873e-05
9 *146:10 0.000385437

*RES
1 *146:12 *808:Q 1.4
2 *146:11 *808:D 1.4
3 *146:10 *146:12 1.4
4 *146:9 *146:11 1.4
5 *146:8 *146:10 1.86424
6 *146:7 *146:9 0.372849
7 *146:6 *146:8 1.4
8 *146:5 *146:7 1.4
9 *146:5 *146:6 0.248577
10 *146:4 *146:5 2.11291
11 *146:3 *146:4 1.4
12 *146:2 *146:3 0.248566
13 *146:1 *146:2 1.4
14 *1005:A0 *146:1 1.4
*END

*D_NET *147 0.00185398

*CONN
*I *1079:A0 I *C 113.825 99.325 *L 0.00264 *D AOI22X1
*I *807:D I *C 115.855 104.545 *L 0.00183 *D SDFFQX1
*I *807:Q O *C 121.075 105.125 *L 0 *D SDFFQX1

*CAP
1 *147:1 0.000410887
2 *147:2 0.000410887
3 *147:3 0.000134226
4 *147:4 0.00047938
5 *147:5 0.000345154
6 *147:7 3.67249e-05
7 *147:9 3.67249e-05

*RES
1 *147:9 *807:Q 1.4
2 *147:7 *147:9 0.248576
3 *147:6 *807:D 1.4
4 *147:5 *147:7 1.4
5 *147:4 *147:6 1.4
6 *147:4 *147:5 2.2371
7 *147:3 *147:4 0.869983
8 *147:2 *147:3 1.4
9 *147:1 *147:2 2.23709
10 *1079:A0 *147:1 1.4
*END

*D_NET *148 0.00278688

*CONN
*I *1035:A0 I *C 106.285 104.835 *L 0.00264 *D AOI221X1
*I *806:D I *C 106.865 120.205 *L 0.00181 *D SDFFQXL
*I *806:Q O *C 112.085 120.785 *L 0 *D SDFFQXL

*CAP
1 *148:2 3.83504e-05
2 *148:3 3.83504e-05
3 *148:4 0.000973209
4 *148:5 0.00100993
5 *148:6 3.67249e-05
6 *148:8 0.000345154
7 *148:9 0.000345154

*RES
1 *148:10 *806:Q 1.4
2 *148:9 *148:10 1.4
3 *148:8 *148:9 2.2371
4 *148:6 *148:8 1.4
5 *148:5 *806:D 1.4
6 *148:5 *148:6 0.248576
7 *148:4 *148:5 6.58727
8 *148:3 *148:4 1.4
9 *148:2 *148:3 0.248566
10 *148:1 *148:2 1.4
11 *1035:A0 *148:1 1.4
*END

*D_NET *149 0.00148225

*CONN
*I *805:D I *C 74.095 83.665 *L 0.00183 *D SDFFQX1
*I *805:Q O *C 68.875 84.245 *L 0 *D SDFFQX1
*I *1069:A0 I *C 68.585 86.275 *L 0.00264 *D AOI22X1

*CAP
1 *149:1 2.42286e-05
2 *149:2 2.42286e-05
3 *149:3 0.000472586
4 *149:4 0.000498841
5 *149:5 2.42286e-05
6 *149:6 2.62548e-05
7 *149:7 2.42286e-05
8 *149:8 0.000193829
9 *149:10 0.000193829

*RES
1 *149:10 *1069:A0 1.4
2 *149:8 *149:10 0.99431
3 *149:7 *805:Q 1.4
4 *149:6 *149:8 1.4
5 *149:5 *149:7 0.124289
6 *149:4 *149:6 0.124289
7 *149:4 *149:5 1.4
8 *149:3 *149:4 2.2372
9 *149:2 *149:3 1.4
10 *149:1 *149:2 0.124289
11 *805:D *149:1 1.4
*END

*D_NET *150 0.00298491

*CONN
*I *1148:A0 I *C 67.715 107.155 *L 0.00158 *D AO22XL
*I *804:D I *C 66.845 120.205 *L 0.00183 *D SDFFQX1
*I *804:Q O *C 61.625 120.785 *L 0 *D SDFFQX1

*CAP
1 *150:1 0.000921477
2 *150:2 0.000921477
3 *150:3 7.57177e-05
4 *150:4 0.000530024
5 *150:6 0.000454306
6 *150:8 4.09545e-05
7 *150:9 4.09545e-05

*RES
1 *150:9 *804:Q 1.4
2 *150:8 *150:9 0.248567
3 *150:6 *150:8 1.4
4 *150:5 *804:D 1.4
5 *150:4 *150:6 2.23709
6 *150:4 *150:5 1.4
7 *150:3 *150:4 0.372849
8 *150:2 *150:3 1.4
9 *150:1 *150:2 5.59275
10 *1148:A0 *150:1 1.4
*END

*D_NET *151 0.00145691

*CONN
*I *1209:A I *C 33.495 120.495 *L 0.00273 *D INVX1
*I *803:D I *C 31.175 122.815 *L 0.00183 *D SDFFQX1
*I *803:Q O *C 25.955 122.235 *L 0 *D SDFFQX1

*CAP
1 *151:1 0.000118693
2 *151:2 0.000118693
3 *151:3 0.000176112
4 *151:4 0.000570198
5 *151:5 3.95644e-05
6 *151:6 0.000394086
7 *151:7 3.95644e-05

*RES
1 *151:8 *803:Q 1.4
2 *151:7 *803:D 1.4
3 *151:6 *151:8 1.4
4 *151:5 *151:7 0.248566
5 *151:4 *151:6 2.2372
6 *151:4 *151:5 1.4
7 *151:3 *151:4 0.99431
8 *151:2 *151:3 1.4
9 *151:1 *151:2 0.745699
10 *1209:A *151:1 1.4
*END

*D_NET *152 0.0015363

*CONN
*I *1139:B1 I *C 23.635 110.345 *L 0.00171 *D AOI22XL
*I *802:D I *C 23.345 117.595 *L 0.00183 *D SDFFQX1
*I *802:Q O *C 18.125 117.015 *L 0 *D SDFFQX1

*CAP
1 *152:1 0.000397601
2 *152:2 0.000397601
3 *152:3 1.76828e-05
4 *152:4 0.000335974
5 *152:5 3.4574e-05
6 *152:6 0.000318291
7 *152:7 3.4574e-05

*RES
1 *152:8 *802:Q 1.4
2 *152:7 *802:D 1.4
3 *152:6 *152:8 1.4
4 *152:5 *152:7 0.248575
5 *152:4 *152:6 2.2371
6 *152:4 *152:5 1.4
7 *152:3 *152:4 0.124284
8 *152:2 *152:3 1.4
9 *152:1 *152:2 2.85862
10 *1139:B1 *152:1 1.4
*END

*D_NET *153 0.0012924

*CONN
*I *801:D I *C 26.245 88.885 *L 0.00183 *D SDFFQX1
*I *1159:A I *C 23.925 85.985 *L 0.00162 *D NOR2XL
*I *801:Q O *C 21.025 89.465 *L 0 *D SDFFQX1

*CAP
1 *153:1 2.49191e-05
2 *153:2 2.49191e-05
3 *153:3 0.000165207
4 *153:4 0.000165207
5 *153:5 0.000252266
6 *153:6 6.30666e-05
7 *153:7 0.0001892
8 *153:8 0.000203807
9 *153:10 0.000203807

*RES
1 *153:11 *801:Q 1.4
2 *153:10 *153:11 1.4
3 *153:8 *153:10 1.24283
4 *153:7 *1159:A 1.4
5 *153:6 *153:8 1.4
6 *153:5 *153:7 1.11854
7 *153:5 *153:6 0.372848
8 *153:4 *153:5 1.4
9 *153:3 *153:4 0.994265
10 *153:2 *153:3 1.4
11 *153:1 *153:2 0.124289
12 *801:D *153:1 1.4
*END

*D_NET *154 0.00170005

*CONN
*I *1178:B0 I *C 24.215 42.195 *L 0.00265 *D AOI22X1
*I *800:D I *C 22.765 36.685 *L 0.00183 *D SDFFQX1
*I *800:Q O *C 17.545 37.265 *L 0 *D SDFFQX1

*CAP
1 *154:1 0.000341454
2 *154:2 0.000341454
3 *154:3 0.000101826
4 *154:4 0.000468399
5 *154:5 4.0171e-05
6 *154:6 0.000366573
7 *154:7 4.0171e-05

*RES
1 *154:8 *800:Q 1.4
2 *154:7 *800:D 1.4
3 *154:6 *154:8 1.4
4 *154:5 *154:7 0.248567
5 *154:4 *154:6 2.2371
6 *154:4 *154:5 1.4
7 *154:3 *154:4 0.621416
8 *154:2 *154:3 1.4
9 *154:1 *154:2 2.11282
10 *1178:B0 *154:1 1.4
*END

*D_NET *155 0.00181803

*CONN
*I *1353:A0 I *C 22.765 65.395 *L 0.00158 *D AO22XL
*I *799:D I *C 24.795 60.175 *L 0.00183 *D SDFFQX1
*I *799:Q O *C 19.575 59.595 *L 0 *D SDFFQX1

*CAP
1 *155:2 8.25589e-05
2 *155:3 8.25589e-05
3 *155:4 0.000409447
4 *155:5 0.000454941
5 *155:6 6.19192e-05
6 *155:7 4.54941e-05
7 *155:8 6.19192e-05
8 *155:9 0.000309596
9 *155:11 0.000309596

*RES
1 *155:13 *799:Q 1.4
2 *155:11 *155:13 1.4
3 *155:10 *799:D 1.4
4 *155:9 *155:11 1.86425
5 *155:8 *155:10 1.4
6 *155:7 *155:9 1.4
7 *155:6 *155:8 0.372849
8 *155:5 *155:7 0.248567
9 *155:5 *155:6 1.4
10 *155:4 *155:5 2.2371
11 *155:3 *155:4 1.4
12 *155:2 *155:3 0.497132
13 *155:1 *155:2 1.4
14 *1353:A0 *155:1 1.4
*END

*D_NET *156 0.00133158

*CONN
*I *828:D I *C 62.495 31.465 *L 0.00183 *D SDFFQX1
*I *1105:B1 I *C 65.685 33.495 *L 0.00171 *D AOI22XL
*I *828:Q O *C 67.715 32.045 *L 0 *D SDFFQX1

*CAP
1 *156:1 2.16089e-05
2 *156:2 2.16089e-05
3 *156:3 0.000288022
4 *156:4 0.000288022
5 *156:5 6.48267e-05
6 *156:6 0.000172871
7 *156:7 0.000183287
8 *156:8 0.000108044
9 *156:9 0.000183287

*RES
1 *156:11 *828:Q 1.4
2 *156:9 *156:11 1.4
3 *156:8 *1105:B1 1.4
4 *156:7 *156:9 0.870021
5 *156:6 *156:8 0.621417
6 *156:6 *156:7 1.4
7 *156:5 *156:6 0.37285
8 *156:4 *156:5 1.4
9 *156:3 *156:4 1.36718
10 *156:2 *156:3 1.4
11 *156:1 *156:2 0.124283
12 *828:D *156:1 1.4
*END

*D_NET *157 0.00168187

*CONN
*I *827:D I *C 104.835 31.465 *L 0.00181 *D SDFFQXL
*I *1098:B0 I *C 105.995 36.975 *L 0.00265 *D AOI22X1
*I *827:Q O *C 110.055 32.045 *L 0 *D SDFFQXL

*CAP
1 *157:1 4.05732e-05
2 *157:2 4.05732e-05
3 *157:3 8.31871e-05
4 *157:4 8.31871e-05
5 *157:5 8.11464e-05
6 *157:6 0.000426018
7 *157:7 0.000291155
8 *157:8 0.000344872
9 *157:9 0.000291155

*RES
1 *157:11 *827:Q 1.4
2 *157:9 *157:11 1.4
3 *157:8 *1098:B0 1.4
4 *157:7 *157:9 1.73996
5 *157:6 *157:8 2.11281
6 *157:6 *157:7 1.4
7 *157:5 *157:6 0.497132
8 *157:4 *157:5 1.4
9 *157:3 *157:4 0.497132
10 *157:2 *157:3 1.4
11 *157:1 *157:2 0.248566
12 *827:D *157:1 1.4
*END

*D_NET *158 0.00251957

*CONN
*I *1041:C1 I *C 102.225 44.225 *L 0.00176 *D AOI222XL
*I *826:D I *C 102.225 34.075 *L 0.00181 *D SDFFQXL
*I *826:Q O *C 97.005 33.495 *L 0 *D SDFFQXL

*CAP
1 *158:1 0.000757381
2 *158:2 0.000779021
3 *158:4 2.16395e-05
4 *158:5 0.000459124
5 *158:6 0.000459124
6 *158:7 2.16395e-05
7 *158:8 2.16395e-05

*RES
1 *158:8 *826:Q 1.4
2 *158:7 *158:8 0.124289
3 *158:6 *158:7 1.4
4 *158:5 *158:6 2.2372
5 *158:4 *158:5 1.4
6 *158:2 *158:4 0.124289
7 *158:2 *826:D 1.4
8 *158:1 *158:2 4.35011
9 *1041:C1 *158:1 1.4
*END

*D_NET *159 0.0013567

*CONN
*I *825:D I *C 82.215 31.465 *L 0.00181 *D SDFFQXL
*I *1083:B0 I *C 77.575 33.785 *L 0.00265 *D AOI22X1
*I *825:Q O *C 76.995 32.045 *L 0 *D SDFFQXL

*CAP
1 *159:1 6.49184e-05
2 *159:2 6.49184e-05
3 *159:3 0.000383619
4 *159:4 0.000383619
5 *159:5 2.16089e-05
6 *159:6 2.16089e-05
7 *159:7 2.61838e-05
8 *159:8 7.85515e-05
9 *159:9 8.64356e-05
10 *159:10 5.23677e-05
11 *159:11 8.64356e-05
12 *159:12 4.32178e-05
13 *159:14 4.32178e-05

*RES
1 *159:14 *825:Q 1.4
2 *159:12 *159:14 0.248567
3 *159:11 *1083:B0 1.4
4 *159:10 *159:12 1.4
5 *159:9 *159:11 0.497134
6 *159:8 *159:10 0.248577
7 *159:8 *159:9 1.4
8 *159:7 *159:8 0.124289
9 *159:6 *159:7 1.4
10 *159:5 *159:6 0.124283
11 *159:4 *159:5 1.4
12 *159:3 *159:4 1.86433
13 *159:2 *159:3 1.4
14 *159:1 *159:2 0.372866
15 *825:D *159:1 1.4
*END

*D_NET *160 0.00200921

*CONN
*I *824:D I *C 91.495 86.275 *L 0.00181 *D SDFFQXL
*I *1108:B0 I *C 94.975 91.205 *L 0.00265 *D AOI22X1
*I *824:Q O *C 96.715 85.695 *L 0 *D SDFFQXL

*CAP
1 *160:1 7.39202e-05
2 *160:2 7.39202e-05
3 *160:3 0.000308349
4 *160:4 0.000308349
5 *160:5 0.000443521
6 *160:6 0.000344961
7 *160:7 9.85602e-05
8 *160:9 0.000154175
9 *160:10 0.000154175
10 *160:11 2.46401e-05
11 *160:12 2.46401e-05

*RES
1 *160:12 *824:Q 1.4
2 *160:11 *160:12 0.124289
3 *160:10 *160:11 1.4
4 *160:9 *160:10 0.745697
5 *160:7 *160:9 1.4
6 *160:6 *1108:B0 1.4
7 *160:5 *160:7 0.497155
8 *160:5 *160:6 1.74004
9 *160:4 *160:5 1.4
10 *160:3 *160:4 1.49139
11 *160:2 *160:3 1.4
12 *160:1 *160:2 0.372866
13 *824:D *160:1 1.4
*END

*D_NET *161 0.00187522

*CONN
*I *1109:A0 I *C 92.945 70.615 *L 0.00264 *D AOI22X1
*I *823:D I *C 90.625 73.225 *L 0.00181 *D SDFFQXL
*I *823:Q O *C 85.405 73.805 *L 0 *D SDFFQXL

*CAP
1 *161:2 5.22737e-05
2 *161:3 5.22737e-05
3 *161:4 0.000211132
4 *161:5 0.000211132
5 *161:6 0.000156821
6 *161:7 0.000627285
7 *161:9 0.000470464
8 *161:11 4.69183e-05
9 *161:12 4.69183e-05

*RES
1 *161:12 *823:Q 1.4
2 *161:11 *161:12 0.248576
3 *161:9 *161:11 1.4
4 *161:8 *823:D 1.4
5 *161:7 *161:9 2.2372
6 *161:7 *161:8 1.4
7 *161:6 *161:7 0.745732
8 *161:5 *161:6 1.4
9 *161:4 *161:5 1.11859
10 *161:3 *161:4 1.4
11 *161:2 *161:3 0.248578
12 *161:1 *161:2 1.4
13 *1109:A0 *161:1 1.4
*END

*D_NET *162 0.00131626

*CONN
*I *822:D I *C 108.315 107.155 *L 0.00181 *D SDFFQXL
*I *822:Q O *C 113.535 106.575 *L 0 *D SDFFQXL
*I *1065:A0 I *C 109.185 104.545 *L 0.00264 *D AOI22X1

*CAP
1 *162:1 5.50873e-05
2 *162:2 5.50873e-05
3 *162:3 7.67008e-05
4 *162:4 7.67008e-05
5 *162:5 7.34497e-05
6 *162:6 0.000220349
7 *162:7 0.000268453
8 *162:8 0.000146899
9 *162:9 0.000268453
10 *162:10 1.91752e-05
11 *162:11 1.83624e-05
12 *162:12 1.91752e-05
13 *162:13 1.83624e-05

*RES
1 *162:14 *1065:A0 1.4
2 *162:13 *822:Q 1.4
3 *162:12 *162:14 1.4
4 *162:11 *162:13 0.124288
5 *162:10 *162:12 0.124283
6 *162:9 *162:11 1.4
7 *162:8 *162:10 1.4
8 *162:7 *162:9 1.73997
9 *162:6 *162:8 0.994304
10 *162:6 *162:7 1.4
11 *162:5 *162:6 0.497152
12 *162:4 *162:5 1.4
13 *162:3 *162:4 0.497133
14 *162:2 *162:3 1.4
15 *162:1 *162:2 0.372864
16 *822:D *162:1 1.4
*END

*D_NET *163 0.00332822

*CONN
*I *821:D I *C 103.965 122.815 *L 0.00181 *D SDFFQXL
*I *821:Q O *C 109.185 122.235 *L 0 *D SDFFQXL
*I *1035:B0 I *C 104.835 104.835 *L 0.00274 *D AOI221X1

*CAP
1 *163:2 2.50188e-05
2 *163:3 2.50188e-05
3 *163:4 4.09329e-05
4 *163:5 0.00126892
5 *163:6 0.0003289
6 *163:7 0.00122799
7 *163:8 0.0003289
8 *163:9 4.12722e-05
9 *163:11 4.12722e-05

*RES
1 *163:13 *1035:B0 1.4
2 *163:11 *163:13 1.4
3 *163:10 *821:Q 1.4
4 *163:9 *163:11 0.248566
5 *163:8 *163:10 1.4
6 *163:7 *163:9 1.4
7 *163:6 *163:8 2.11281
8 *163:5 *163:7 7.45732
9 *163:5 *163:6 1.4
10 *163:4 *163:5 0.248578
11 *163:3 *163:4 1.4
12 *163:2 *163:3 0.124283
13 *163:1 *163:2 1.4
14 *821:D *163:1 1.4
*END

*D_NET *164 0.00178921

*CONN
*I *1069:B0 I *C 69.745 85.985 *L 0.00265 *D AOI22X1
*I *820:Q O *C 71.195 89.465 *L 0 *D SDFFQXL
*I *820:D I *C 76.415 88.885 *L 0.00181 *D SDFFQXL

*CAP
1 *164:2 5.25096e-05
2 *164:3 5.25096e-05
3 *164:4 0.000242286
4 *164:5 0.000242286
5 *164:6 7.87643e-05
6 *164:7 0.00055135
7 *164:8 4.84572e-05
8 *164:9 0.000472586
9 *164:10 4.84572e-05

*RES
1 *164:11 *820:D 1.4
2 *164:10 *820:Q 1.4
3 *164:9 *164:11 1.4
4 *164:8 *164:10 0.248577
5 *164:7 *164:9 2.2372
6 *164:7 *164:8 1.4
7 *164:6 *164:7 0.372866
8 *164:5 *164:6 1.4
9 *164:4 *164:5 1.24289
10 *164:3 *164:4 1.4
11 *164:2 *164:3 0.248577
12 *164:1 *164:2 1.4
13 *1069:B0 *164:1 1.4
*END

*D_NET *165 0.00324302

*CONN
*I *819:D I *C 67.135 122.815 *L 0.00181 *D SDFFQXL
*I *1148:B0 I *C 66.265 107.445 *L 0.00171 *D AO22XL
*I *819:Q O *C 61.915 122.235 *L 0 *D SDFFQXL

*CAP
1 *165:1 4.09545e-05
2 *165:2 4.09545e-05
3 *165:3 7.57177e-05
4 *165:4 7.57177e-05
5 *165:5 8.19091e-05
6 *165:6 0.00112625
7 *165:7 0.000378589
8 *165:8 0.00104434
9 *165:9 0.000378589

*RES
1 *165:11 *819:Q 1.4
2 *165:9 *165:11 1.4
3 *165:8 *1148:B0 1.4
4 *165:7 *165:9 1.86424
5 *165:6 *165:8 6.33845
6 *165:6 *165:7 1.4
7 *165:5 *165:6 0.497134
8 *165:4 *165:5 1.4
9 *165:3 *165:4 0.372849
10 *165:2 *165:3 1.4
11 *165:1 *165:2 0.248567
12 *819:D *165:1 1.4
*END

*D_NET *166 0.00115305

*CONN
*I *1058:A0 I *C 34.365 104.835 *L 0.00265 *D AOI21X1
*I *818:D I *C 34.075 107.155 *L 0.00183 *D SDFFQX1
*I *818:Q O *C 28.855 106.575 *L 0 *D SDFFQX1

*CAP
1 *166:2 2.2014e-05
2 *166:3 2.2014e-05
3 *166:4 0.000118693
4 *166:5 0.000158258
5 *166:6 3.95644e-05
6 *166:7 0.000396252
7 *166:9 0.000396252

*RES
1 *166:10 *818:Q 1.4
2 *166:9 *166:10 1.4
3 *166:7 *166:9 2.2372
4 *166:6 *818:D 1.4
5 *166:5 *166:7 1.4
6 *166:5 *166:6 0.248566
7 *166:4 *166:5 0.745699
8 *166:3 *166:4 1.4
9 *166:2 *166:3 0.124289
10 *166:1 *166:2 1.4
11 *1058:A0 *166:1 1.4
*END

*D_NET *167 0.00194501

*CONN
*I *817:D I *C 32.915 112.375 *L 0.00183 *D SDFFQX1
*I *1138:B0 I *C 30.305 104.255 *L 0.00171 *D AO22XL
*I *817:Q O *C 27.695 111.795 *L 0 *D SDFFQX1

*CAP
1 *167:2 0.000198126
2 *167:3 0.000198126
3 *167:4 1.97822e-05
4 *167:5 0.00055647
5 *167:6 0.000198126
6 *167:7 0.000536688
7 *167:8 0.000198126
8 *167:10 1.97822e-05
9 *167:11 1.97822e-05

*RES
1 *167:11 *817:Q 1.4
2 *167:10 *167:11 0.124283
3 *167:8 *167:10 1.4
4 *167:7 *1138:B0 1.4
5 *167:6 *167:8 1.1186
6 *167:5 *167:7 3.35565
7 *167:5 *167:6 1.4
8 *167:4 *167:5 0.124283
9 *167:3 *167:4 1.4
10 *167:2 *167:3 1.1186
11 *167:1 *167:2 1.4
12 *817:D *167:1 1.4
*END

*D_NET *168 0.00188611

*CONN
*I *816:D I *C 35.815 86.275 *L 0.00183 *D SDFFQX1
*I *1181:B0 I *C 32.915 80.765 *L 0.00262 *D OAI22X1
*I *816:Q O *C 30.595 85.695 *L 0 *D SDFFQX1

*CAP
1 *168:2 0.00024704
2 *168:3 0.00024704
3 *168:4 7.47572e-05
4 *168:5 0.000473462
5 *168:6 0.000197632
6 *168:7 0.000398705
7 *168:8 0.000197632
8 *168:10 2.49191e-05
9 *168:11 2.49191e-05

*RES
1 *168:11 *816:Q 1.4
2 *168:10 *168:11 0.124289
3 *168:8 *168:10 1.4
4 *168:7 *1181:B0 1.4
5 *168:6 *168:8 0.994263
6 *168:5 *168:7 1.98862
7 *168:5 *168:6 1.4
8 *168:4 *168:5 0.372866
9 *168:3 *168:4 1.4
10 *168:2 *168:3 1.24283
11 *168:1 *168:2 1.4
12 *816:D *168:1 1.4
*END

*D_NET *169 0.00211133

*CONN
*I *815:D I *C 36.395 44.515 *L 0.00183 *D SDFFQX1
*I *1177:B1 I *C 33.495 38.715 *L 0.00171 *D AOI22XL
*I *815:Q O *C 31.175 43.935 *L 0 *D SDFFQX1

*CAP
1 *169:1 5.01487e-05
2 *169:2 5.01487e-05
3 *169:3 0.000252156
4 *169:4 0.000252156
5 *169:5 0.000100297
6 *169:6 0.000551636
7 *169:7 0.000201725
8 *169:8 0.000451338
9 *169:9 0.000201725

*RES
1 *169:11 *815:Q 1.4
2 *169:9 *169:11 1.4
3 *169:8 *1177:B1 1.4
4 *169:7 *169:9 0.994263
5 *169:6 *169:8 2.23719
6 *169:6 *169:7 1.4
7 *169:5 *169:6 0.497154
8 *169:4 *169:5 1.4
9 *169:3 *169:4 1.24283
10 *169:2 *169:3 1.4
11 *169:1 *169:2 0.248577
12 *815:D *169:1 1.4
*END

*D_NET *170 0.00153283

*CONN
*I *814:D I *C 33.205 62.785 *L 0.00183 *D SDFFQX1
*I *814:Q O *C 27.985 63.365 *L 0 *D SDFFQX1
*I *1354:A0 I *C 31.465 65.395 *L 0.00158 *D AO22XL

*CAP
1 *170:1 2.56639e-05
2 *170:2 2.56639e-05
3 *170:3 4.86762e-05
4 *170:4 4.86762e-05
5 *170:5 2.56639e-05
6 *170:6 0.000205311
7 *170:7 0.000179648
8 *170:8 0.00038941
9 *170:9 9.73524e-05
10 *170:10 0.00038941
11 *170:11 9.73524e-05

*RES
1 *170:13 *1354:A0 1.4
2 *170:12 *814:Q 1.4
3 *170:11 *170:13 1.4
4 *170:10 *170:12 1.4
5 *170:9 *170:11 0.497131
6 *170:8 *170:10 1.98852
7 *170:7 *170:9 1.4
8 *170:6 *170:8 1.4
9 *170:6 *170:7 0.869979
10 *170:5 *170:6 0.124283
11 *170:4 *170:5 1.4
12 *170:3 *170:4 0.248565
13 *170:2 *170:3 1.4
14 *170:1 *170:2 0.124283
15 *814:D *170:1 1.4
*END

*D_NET *171 0.00186059

*CONN
*I *843:D I *C 51.765 39.295 *L 0.00183 *D SDFFQX1
*I *1102:A1 I *C 51.185 43.935 *L 0.00171 *D AOI22XL
*I *843:Q O *C 46.545 38.715 *L 0 *D SDFFQX1

*CAP
1 *171:1 2.50744e-05
2 *171:2 2.50744e-05
3 *171:3 5.04313e-05
4 *171:4 0.000453881
5 *171:5 0.000426264
6 *171:6 0.00040345
7 *171:7 0.000426264
8 *171:8 2.50744e-05
9 *171:10 2.50744e-05

*RES
1 *171:10 *843:Q 1.4
2 *171:8 *171:10 0.124289
3 *171:7 *1102:A1 1.4
4 *171:6 *171:8 1.4
5 *171:5 *171:7 2.11291
6 *171:4 *171:6 1.98853
7 *171:4 *171:5 1.4
8 *171:3 *171:4 0.248566
9 *171:2 *171:3 1.4
10 *171:1 *171:2 0.124289
11 *843:D *171:1 1.4
*END

*D_NET *172 0.00180461

*CONN
*I *1095:A1 I *C 114.405 43.935 *L 0.00171 *D AOI22XL
*I *842:Q O *C 110.345 37.265 *L 0 *D SDFFQXL
*I *842:D I *C 115.565 36.685 *L 0.00181 *D SDFFQXL

*CAP
1 *172:2 2.07968e-05
2 *172:3 2.07968e-05
3 *172:4 0.000466592
4 *172:5 0.000507165
5 *172:6 0.000311952
6 *172:7 4.05732e-05
7 *172:8 0.000311952
8 *172:9 6.23904e-05
9 *172:11 6.23904e-05

*RES
1 *172:13 *842:D 1.4
2 *172:11 *172:13 1.4
3 *172:10 *842:Q 1.4
4 *172:9 *172:11 0.372849
5 *172:8 *172:10 1.4
6 *172:7 *172:9 1.4
7 *172:6 *172:8 1.86425
8 *172:5 *172:7 0.248566
9 *172:5 *172:6 1.4
10 *172:4 *172:5 2.85851
11 *172:3 *172:4 1.4
12 *172:2 *172:3 0.124283
13 *172:1 *172:2 1.4
14 *1095:A1 *172:1 1.4
*END

*D_NET *173 0.00270334

*CONN
*I *1076:B0 I *C 118.755 44.225 *L 0.00265 *D AOI22X1
*I *841:D I *C 120.785 34.075 *L 0.00181 *D SDFFQXL
*I *841:Q O *C 126.005 33.495 *L 0 *D SDFFQXL

*CAP
1 *173:1 4.05732e-05
2 *173:2 4.05732e-05
3 *173:3 2.07968e-05
4 *173:4 2.07968e-05
5 *173:5 0.000750604
6 *173:6 0.000750604
7 *173:7 0.000124781
8 *173:8 0.000499123
9 *173:9 0.000374342
10 *173:11 4.05732e-05
11 *173:13 4.05732e-05

*RES
1 *173:13 *841:Q 1.4
2 *173:11 *173:13 0.248566
3 *173:10 *841:D 1.4
4 *173:9 *173:11 1.4
5 *173:8 *173:10 1.4
6 *173:8 *173:9 2.2371
7 *173:7 *173:8 0.745698
8 *173:6 *173:7 1.4
9 *173:5 *173:6 4.59848
10 *173:4 *173:5 1.4
11 *173:3 *173:4 0.124283
12 *173:2 *173:3 1.4
13 *173:1 *173:2 0.248566
14 *1076:B0 *173:1 1.4
*END

*D_NET *174 0.00216187

*CONN
*I *1084:B0 I *C 74.095 44.225 *L 0.00265 *D AOI22X1
*I *840:Q O *C 70.905 37.265 *L 0 *D SDFFQXL
*I *840:D I *C 76.125 36.685 *L 0.00181 *D SDFFQXL

*CAP
1 *174:2 2.61838e-05
2 *174:3 2.61838e-05
3 *174:4 0.000497004
4 *174:5 0.000561831
5 *174:6 0.000314206
6 *174:7 6.48267e-05
7 *174:8 0.000314206
8 *174:9 0.000157103
9 *174:10 2.16089e-05
10 *174:11 0.000157103
11 *174:12 2.16089e-05

*RES
1 *174:13 *840:D 1.4
2 *174:12 *840:Q 1.4
3 *174:11 *174:13 1.4
4 *174:10 *174:12 0.124283
5 *174:9 *174:11 0.745732
6 *174:8 *174:10 1.4
7 *174:7 *174:9 1.4
8 *174:6 *174:8 1.49146
9 *174:5 *174:7 0.37285
10 *174:5 *174:6 1.4
11 *174:4 *174:5 2.85852
12 *174:3 *174:4 1.4
13 *174:2 *174:3 0.124289
14 *174:1 *174:2 1.4
15 *1084:B0 *174:1 1.4
*END

*D_NET *175 0.00151512

*CONN
*I *1110:A0 I *C 119.045 81.055 *L 0.00264 *D AOI22X1
*I *839:D I *C 120.495 83.665 *L 0.00181 *D SDFFQXL
*I *839:Q O *C 125.715 84.245 *L 0 *D SDFFQXL

*CAP
1 *175:2 2.1959e-05
2 *175:3 2.1959e-05
3 *175:4 0.000206592
4 *175:5 0.000206592
5 *175:6 8.78361e-05
6 *175:7 0.000483099
7 *175:8 0.000395262
8 *175:10 4.59092e-05
9 *175:12 4.59092e-05

*RES
1 *175:12 *839:Q 1.4
2 *175:10 *175:12 0.248565
3 *175:9 *839:D 1.4
4 *175:8 *175:10 1.4
5 *175:7 *175:9 1.4
6 *175:7 *175:8 2.2372
7 *175:6 *175:7 0.497155
8 *175:5 *175:6 1.4
9 *175:4 *175:5 1.11854
10 *175:3 *175:4 1.4
11 *175:2 *175:3 0.124289
12 *175:1 *175:2 1.4
13 *1110:A0 *175:1 1.4
*END

*D_NET *176 0.00146769

*CONN
*I *838:D I *C 83.375 81.055 *L 0.00183 *D SDFFQX1
*I *1146:A0 I *C 81.635 78.445 *L 0.00264 *D AOI22X1
*I *838:Q O *C 78.155 80.475 *L 0 *D SDFFQX1

*CAP
1 *176:1 2.46401e-05
2 *176:2 2.46401e-05
3 *176:3 0.000154175
4 *176:4 0.000154175
5 *176:5 7.39202e-05
6 *176:6 0.000246401
7 *176:7 0.000308629
8 *176:8 0.00017248
9 *176:9 0.000308629

*RES
1 *176:11 *838:Q 1.4
2 *176:9 *176:11 1.4
3 *176:8 *1146:A0 1.4
4 *176:7 *176:9 1.4914
5 *176:6 *176:8 0.870021
6 *176:6 *176:7 1.4
7 *176:5 *176:6 0.372866
8 *176:4 *176:5 1.4
9 *176:3 *176:4 0.745697
10 *176:2 *176:3 1.4
11 *176:1 *176:2 0.124289
12 *838:D *176:1 1.4
*END

*D_NET *177 0.00181969

*CONN
*I *1052:C1 I *C 113.245 110.055 *L 0.00176 *D AOI222XL
*I *837:D I *C 118.175 112.375 *L 0.00181 *D SDFFQXL
*I *837:Q O *C 123.395 111.795 *L 0 *D SDFFQXL

*CAP
1 *177:1 3.67249e-05
2 *177:2 3.67249e-05
3 *177:3 0.000210927
4 *177:4 0.000210927
5 *177:5 0.000165262
6 *177:6 0.000165262
7 *177:7 0.000115051
8 *177:8 0.000460205
9 *177:9 0.000345154
10 *177:10 1.83624e-05
11 *177:11 1.83624e-05
12 *177:12 1.83624e-05
13 *177:13 1.83624e-05

*RES
1 *177:13 *837:Q 1.4
2 *177:12 *837:D 1.4
3 *177:11 *177:13 0.124288
4 *177:10 *177:12 0.124288
5 *177:9 *177:11 1.4
6 *177:8 *177:10 1.4
7 *177:8 *177:9 2.2371
8 *177:7 *177:8 0.745699
9 *177:6 *177:7 1.4
10 *177:5 *177:6 1.11859
11 *177:4 *177:5 1.4
12 *177:3 *177:4 1.36712
13 *177:2 *177:3 1.4
14 *177:1 *177:2 0.248576
15 *1052:C1 *177:1 1.4
*END

*D_NET *178 0.0014097

*CONN
*I *1047:C1 I *C 106.865 110.055 *L 0.00176 *D AOI222XL
*I *836:Q O *C 106.575 111.795 *L 0 *D SDFFQXL
*I *836:D I *C 101.355 112.375 *L 0.00181 *D SDFFQXL

*CAP
1 *178:2 1.91752e-05
2 *178:3 1.91752e-05
3 *178:4 0.000165262
4 *178:5 0.000165262
5 *178:6 3.83504e-05
6 *178:7 0.000444862
7 *178:8 5.50873e-05
8 *178:9 0.000406511
9 *178:10 5.50873e-05
10 *178:11 2.04665e-05
11 *178:13 2.04665e-05

*RES
1 *178:13 *836:D 1.4
2 *178:11 *178:13 0.124289
3 *178:10 *836:Q 1.4
4 *178:9 *178:11 1.4
5 *178:8 *178:10 0.372864
6 *178:7 *178:9 2.23709
7 *178:7 *178:8 1.4
8 *178:6 *178:7 0.248566
9 *178:5 *178:6 1.4
10 *178:4 *178:5 1.11859
11 *178:3 *178:4 1.4
12 *178:2 *178:3 0.124283
13 *178:1 *178:2 1.4
14 *1047:C1 *178:1 1.4
*END

*D_NET *179 0.00190449

*CONN
*I *835:D I *C 69.455 70.615 *L 0.00183 *D SDFFQX1
*I *835:Q O *C 64.235 70.035 *L 0 *D SDFFQX1
*I *1348:B0 I *C 61.335 70.905 *L 0.00171 *D AO22XL

*CAP
1 *179:1 4.82399e-05
2 *179:2 4.82399e-05
3 *179:3 0.000262559
4 *179:4 0.000262559
5 *179:5 9.64799e-05
6 *179:6 9.64799e-05
7 *179:7 0.000210047
8 *179:8 0.000472606
9 *179:10 0.000262559
10 *179:12 7.23599e-05
11 *179:13 7.23599e-05

*RES
1 *179:13 *1348:B0 1.4
2 *179:12 *179:13 0.372851
3 *179:10 *179:12 1.4
4 *179:9 *835:Q 1.4
5 *179:8 *179:10 1.24283
6 *179:8 *179:9 1.4
7 *179:7 *179:8 0.994263
8 *179:6 *179:7 1.4
9 *179:5 *179:6 0.497134
10 *179:4 *179:5 1.4
11 *179:3 *179:4 1.24283
12 *179:2 *179:3 1.4
13 *179:1 *179:2 0.248567
14 *835:D *179:1 1.4
*END

*D_NET *180 0.00209852

*CONN
*I *1115:A0 I *C 78.155 109.765 *L 0.00264 *D AOI22X1
*I *834:D I *C 77.865 117.595 *L 0.00183 *D SDFFQX1
*I *834:Q O *C 83.085 117.015 *L 0 *D SDFFQX1

*CAP
1 *180:2 2.52392e-05
2 *180:3 2.52392e-05
3 *180:4 0.000491455
4 *180:5 0.000552886
5 *180:6 0.000450669
6 *180:7 6.14318e-05
7 *180:8 0.000450669
8 *180:10 2.04665e-05
9 *180:11 2.04665e-05

*RES
1 *180:11 *834:Q 1.4
2 *180:10 *180:11 0.124289
3 *180:8 *180:10 1.4
4 *180:7 *834:D 1.4
5 *180:6 *180:8 2.23709
6 *180:5 *180:7 0.37285
7 *180:5 *180:6 1.4
8 *180:4 *180:5 2.9828
9 *180:3 *180:4 1.4
10 *180:2 *180:3 0.124283
11 *180:1 *180:2 1.4
12 *1115:A0 *180:1 1.4
*END

*D_NET *181 0.00202346

*CONN
*I *1349:B0 I *C 43.935 112.085 *L 0.00265 *D AOI22X1
*I *833:D I *C 45.385 120.205 *L 0.00183 *D SDFFQX1
*I *833:Q O *C 40.165 120.785 *L 0 *D SDFFQX1

*CAP
1 *181:2 2.2014e-05
2 *181:3 2.2014e-05
3 *181:4 0.000553902
4 *181:5 0.000593466
5 *181:6 3.95644e-05
6 *181:7 8.8056e-05
7 *181:8 0.000308196
8 *181:9 8.8056e-05
9 *181:10 0.000308196

*RES
1 *181:12 *833:Q 1.4
2 *181:11 *833:D 1.4
3 *181:10 *181:12 1.4
4 *181:9 *181:11 1.4
5 *181:8 *181:10 1.74004
6 *181:7 *181:9 0.497155
7 *181:6 *181:8 1.4
8 *181:5 *181:7 1.4
9 *181:5 *181:6 0.248566
10 *181:4 *181:5 3.47993
11 *181:3 *181:4 1.4
12 *181:2 *181:3 0.124289
13 *181:1 *181:2 1.4
14 *1349:B0 *181:1 1.4
*END

*D_NET *182 0.00167631

*CONN
*I *832:D I *C 40.455 117.595 *L 0.00183 *D SDFFQX1
*I *832:Q O *C 35.235 117.015 *L 0 *D SDFFQX1
*I *1104:B0 I *C 38.715 112.085 *L 0.00265 *D AOI22X1

*CAP
1 *182:2 6.6042e-05
2 *182:3 6.6042e-05
3 *182:4 3.95644e-05
4 *182:5 0.000375862
5 *182:6 0.00033021
6 *182:7 0.000336298
7 *182:8 0.00033021
8 *182:9 6.6042e-05
9 *182:11 6.6042e-05

*RES
1 *182:13 *1104:B0 1.4
2 *182:11 *182:13 1.4
3 *182:10 *832:Q 1.4
4 *182:9 *182:11 0.372866
5 *182:8 *182:10 1.4
6 *182:7 *182:9 1.4
7 *182:6 *182:8 1.86433
8 *182:5 *182:7 2.11281
9 *182:5 *182:6 1.4
10 *182:4 *182:5 0.248566
11 *182:3 *182:4 1.4
12 *182:2 *182:3 0.372866
13 *182:1 *182:2 1.4
14 *832:D *182:1 1.4
*END

*D_NET *183 0.00143547

*CONN
*I *1050:A0 I *C 35.525 75.545 *L 0.00265 *D AOI21X1
*I *831:D I *C 34.945 73.225 *L 0.00183 *D SDFFQX1
*I *831:Q O *C 29.725 73.805 *L 0 *D SDFFQX1

*CAP
1 *183:1 0.00012832
2 *183:2 0.00012832
3 *183:3 4.86762e-05
4 *183:4 0.000486762
5 *183:5 7.69918e-05
6 *183:6 0.000438086
7 *183:7 7.69918e-05
8 *183:8 2.56639e-05
9 *183:10 2.56639e-05

*RES
1 *183:10 *831:Q 1.4
2 *183:8 *183:10 0.124283
3 *183:7 *831:D 1.4
4 *183:6 *183:8 1.4
5 *183:5 *183:7 0.372848
6 *183:4 *183:6 2.23709
7 *183:4 *183:5 1.4
8 *183:3 *183:4 0.248565
9 *183:2 *183:3 1.4
10 *183:1 *183:2 0.621413
11 *1050:A0 *183:1 1.4
*END

*D_NET *184 0.00216431

*CONN
*I *1176:B1 I *C 29.145 38.715 *L 0.00171 *D AOI22XL
*I *830:Q O *C 32.045 37.265 *L 0 *D SDFFQX1
*I *830:D I *C 37.265 36.685 *L 0.00183 *D SDFFQX1

*CAP
1 *184:1 7.52231e-05
2 *184:2 7.52231e-05
3 *184:3 0.000151294
4 *184:4 0.000151294
5 *184:5 0.000250744
6 *184:6 0.000250744
7 *184:7 0.000100863
8 *184:8 0.000554744
9 *184:9 5.01487e-05
10 *184:10 0.000453881
11 *184:11 5.01487e-05

*RES
1 *184:12 *830:D 1.4
2 *184:11 *830:Q 1.4
3 *184:10 *184:12 1.4
4 *184:9 *184:11 0.248577
5 *184:8 *184:10 2.23709
6 *184:8 *184:9 1.4
7 *184:7 *184:8 0.497132
8 *184:6 *184:7 1.4
9 *184:5 *184:6 1.24289
10 *184:4 *184:5 1.4
11 *184:3 *184:4 0.745697
12 *184:2 *184:3 1.4
13 *184:1 *184:2 0.372866
14 *1176:B1 *184:1 1.4
*END

*D_NET *185 0.00266033

*CONN
*I *1180:B0 I *C 31.755 59.885 *L 0.00265 *D AOI22X1
*I *829:D I *C 38.425 62.785 *L 0.00183 *D SDFFQX1
*I *829:Q O *C 43.645 63.365 *L 0 *D SDFFQX1

*CAP
1 *185:2 0.000584114
2 *185:3 0.000584114
3 *185:4 0.000256639
4 *185:5 0.000307967
5 *185:6 5.13279e-05
6 *185:7 2.43381e-05
7 *185:8 0.000413748
8 *185:9 2.43381e-05
9 *185:10 0.000413748

*RES
1 *185:12 *829:Q 1.4
2 *185:11 *829:D 1.4
3 *185:10 *185:12 1.4
4 *185:9 *185:11 1.4
5 *185:8 *185:10 2.11281
6 *185:7 *185:9 0.124283
7 *185:6 *185:8 1.4
8 *185:5 *185:7 1.4
9 *185:5 *185:6 0.248565
10 *185:4 *185:5 1.24283
11 *185:3 *185:4 1.4
12 *185:2 *185:3 2.98278
13 *185:1 *185:2 1.4
14 *1180:B0 *185:1 1.4
*END

*D_NET *186 0.00192196

*CONN
*I *858:SI I *C 54.665 47.125 *L 0.00169 *D SDFFQXL
*I *1102:B1 I *C 50.605 43.935 *L 0.00171 *D AOI22XL
*I *858:Q O *C 47.995 47.705 *L 0 *D SDFFQXL

*CAP
1 *186:1 2.16089e-05
2 *186:2 2.16089e-05
3 *186:3 0.000336033
4 *186:4 0.000336033
5 *186:5 0.000275818
6 *186:6 2.50744e-05
7 *186:7 0.000250744
8 *186:8 0.000252156
9 *186:9 2.52156e-05
10 *186:10 0.000252156
11 *186:11 2.52156e-05
12 *186:12 5.01487e-05
13 *186:14 5.01487e-05

*RES
1 *186:14 *858:Q 1.4
2 *186:13 *1102:B1 1.4
3 *186:12 *186:14 0.248577
4 *186:11 *186:13 1.4
5 *186:10 *186:12 1.4
6 *186:9 *186:11 0.124283
7 *186:8 *186:10 1.24283
8 *186:7 *186:9 1.4
9 *186:6 *186:8 1.4
10 *186:5 *186:7 1.24289
11 *186:5 *186:6 0.124289
12 *186:4 *186:5 1.4
13 *186:3 *186:4 1.61573
14 *186:2 *186:3 1.4
15 *186:1 *186:2 0.124283
16 *858:SI *186:1 1.4
*END

*D_NET *187 0.0018513

*CONN
*I *857:SI I *C 117.305 39.295 *L 0.00169 *D SDFFQXL
*I *1095:B1 I *C 114.985 43.935 *L 0.00171 *D AOI22XL
*I *857:Q O *C 110.635 38.715 *L 0 *D SDFFQXL

*CAP
1 *187:1 4.05732e-05
2 *187:2 4.05732e-05
3 *187:3 0.000124781
4 *187:4 0.000124781
5 *187:5 0.000344872
6 *187:6 0.000284012
7 *187:7 6.08598e-05
8 *187:8 4.15936e-05
9 *187:9 0.000353545
10 *187:10 4.15936e-05
11 *187:11 0.000353545
12 *187:13 2.02866e-05
13 *187:15 2.02866e-05

*RES
1 *187:15 *857:Q 1.4
2 *187:13 *187:15 0.124283
3 *187:12 *1095:B1 1.4
4 *187:11 *187:13 1.4
5 *187:10 *187:12 1.4
6 *187:9 *187:11 2.11281
7 *187:8 *187:10 0.248566
8 *187:7 *187:9 1.4
9 *187:6 *187:8 1.4
10 *187:5 *187:7 0.372849
11 *187:5 *187:6 1.73996
12 *187:4 *187:5 1.4
13 *187:3 *187:4 0.745698
14 *187:2 *187:3 1.4
15 *187:1 *187:2 0.248566
16 *857:SI *187:1 1.4
*END

*D_NET *188 0.00174471

*CONN
*I *856:SI I *C 118.175 49.735 *L 0.00169 *D SDFFQXL
*I *1346:A0 I *C 115.565 52.635 *L 0.00156 *D AOI222XL
*I *856:Q O *C 111.505 49.155 *L 0 *D SDFFQXL

*CAP
1 *188:1 4.05732e-05
2 *188:2 4.05732e-05
3 *188:3 0.000166374
4 *188:4 0.000166374
5 *188:5 8.11464e-05
6 *188:6 0.000250246
7 *188:7 0.0001691
8 *188:8 0.000311952
9 *188:9 2.20611e-05
10 *188:10 0.000311952
11 *188:11 2.20611e-05
12 *188:12 8.11464e-05
13 *188:14 8.11464e-05

*RES
1 *188:14 *856:Q 1.4
2 *188:13 *1346:A0 1.4
3 *188:12 *188:14 0.497132
4 *188:11 *188:13 1.4
5 *188:10 *188:12 1.4
6 *188:9 *188:11 0.124289
7 *188:8 *188:10 1.86425
8 *188:7 *188:9 1.4
9 *188:6 *188:8 1.4
10 *188:6 *188:7 0.994273
11 *188:5 *188:6 0.497132
12 *188:4 *188:5 1.4
13 *188:3 *188:4 0.994265
14 *188:2 *188:3 1.4
15 *188:1 *188:2 0.248566
16 *856:SI *188:1 1.4
*END

*D_NET *189 0.0015502

*CONN
*I *855:SI I *C 69.455 41.905 *L 0.00169 *D SDFFQXL
*I *1081:B1 I *C 65.975 43.935 *L 0.00171 *D AOI22XL
*I *855:Q O *C 62.785 42.485 *L 0 *D SDFFQXL

*CAP
1 *189:1 2.16089e-05
2 *189:2 2.16089e-05
3 *189:3 0.000314206
4 *189:4 0.000314206
5 *189:5 4.32178e-05
6 *189:6 0.000129653
7 *189:7 8.64356e-05
8 *189:8 0.000288022
9 *189:10 0.000288022
10 *189:11 2.16089e-05
11 *189:12 2.16089e-05

*RES
1 *189:12 *855:Q 1.4
2 *189:11 *189:12 0.124283
3 *189:10 *189:11 1.4
4 *189:8 *189:10 1.36718
5 *189:7 *1081:B1 1.4
6 *189:6 *189:8 1.4
7 *189:6 *189:7 0.497134
8 *189:5 *189:6 0.248567
9 *189:4 *189:5 1.4
10 *189:3 *189:4 1.49146
11 *189:2 *189:3 1.4
12 *189:1 *189:2 0.124283
13 *855:SI *189:1 1.4
*END

*D_NET *190 0.00219068

*CONN
*I *1110:B0 I *C 117.885 80.765 *L 0.00265 *D AOI22X1
*I *854:SI I *C 119.625 75.835 *L 0.00169 *D SDFFQXL
*I *854:Q O *C 126.295 75.255 *L 0 *D SDFFQXL

*CAP
1 *190:2 4.39181e-05
2 *190:3 4.39181e-05
3 *190:4 0.000406125
4 *190:5 0.000406125
5 *190:6 8.82442e-05
6 *190:7 0.000595648
7 *190:8 0.000507404
8 *190:10 4.96496e-05
9 *190:12 4.96496e-05

*RES
1 *190:12 *854:Q 1.4
2 *190:10 *190:12 0.248577
3 *190:9 *854:SI 1.4
4 *190:8 *190:10 1.4
5 *190:7 *190:9 1.4
6 *190:7 *190:8 2.85864
7 *190:6 *190:7 0.497155
8 *190:5 *190:6 1.4
9 *190:4 *190:5 2.11286
10 *190:3 *190:4 1.4
11 *190:2 *190:3 0.248577
12 *190:1 *190:2 1.4
13 *1110:B0 *190:1 1.4
*END

*D_NET *191 0.00157764

*CONN
*I *853:SI I *C 102.805 75.835 *L 0.00169 *D SDFFQXL
*I *1042:C1 I *C 97.875 73.515 *L 0.00176 *D AOI222XL
*I *853:Q O *C 96.135 75.255 *L 0 *D SDFFQXL

*CAP
1 *191:1 4.69183e-05
2 *191:2 4.69183e-05
3 *191:3 0.000444327
4 *191:4 0.000522737
5 *191:5 0.000140755
6 *191:6 0.000156821
7 *191:7 0.000140755
8 *191:8 7.84106e-05

*RES
1 *191:10 *853:Q 1.4
2 *191:8 *191:10 1.4
3 *191:7 *1042:C1 1.4
4 *191:6 *191:8 0.372866
5 *191:5 *191:7 0.745728
6 *191:4 *191:6 0.372866
7 *191:4 *191:5 1.4
8 *191:3 *191:4 2.11291
9 *191:2 *191:3 1.4
10 *191:1 *191:2 0.248576
11 *853:SI *191:1 1.4
*END

*D_NET *192 0.00167287

*CONN
*I *852:SI I *C 111.505 91.495 *L 0.00169 *D SDFFQXL
*I *1067:B0 I *C 107.735 91.205 *L 0.00265 *D AOI22X1
*I *852:Q O *C 118.175 90.915 *L 0 *D SDFFQXL

*CAP
1 *192:1 2.29546e-05
2 *192:2 2.29546e-05
3 *192:3 0.000790525
4 *192:4 0.000505058
5 *192:5 0.000285467
6 *192:6 2.29546e-05
7 *192:8 2.29546e-05

*RES
1 *192:8 *852:Q 1.4
2 *192:7 *1067:B0 1.4
3 *192:6 *192:8 0.124283
4 *192:5 *192:7 1.4
5 *192:4 *192:6 1.4
6 *192:3 *192:5 1.61575
7 *192:3 *192:4 2.85864
8 *192:2 *192:3 1.4
9 *192:1 *192:2 0.124283
10 *852:SI *192:1 1.4
*END

*D_NET *193 0.00237885

*CONN
*I *1106:B0 I *C 101.645 106.865 *L 0.00265 *D AOI22X1
*I *851:SI I *C 101.645 114.985 *L 0.00169 *D SDFFQXL
*I *851:Q O *C 94.975 115.565 *L 0 *D SDFFQXL

*CAP
1 *193:1 0.000573061
2 *193:2 0.000573061
3 *193:4 0.000575432
4 *193:5 0.000575432
5 *193:6 4.09329e-05
6 *193:7 4.09329e-05

*RES
1 *193:7 *851:Q 1.4
2 *193:6 *193:7 0.248578
3 *193:5 *193:6 1.4
4 *193:4 *193:5 2.85851
5 *193:2 *193:4 1.4
6 *193:2 *851:SI 1.4
7 *193:1 *193:2 3.48009
8 *1106:B0 *193:1 1.4
*END

*D_NET *194 0.00159369

*CONN
*I *850:SI I *C 68.875 75.835 *L 0.00169 *D SDFFQXL
*I *1040:A0 I *C 64.235 73.515 *L 0.00158 *D AOI21XL
*I *850:Q O *C 62.205 75.255 *L 0 *D SDFFQXL

*CAP
1 *194:2 0.000420095
2 *194:3 0.000420095
3 *194:4 4.82399e-05
4 *194:5 0.00019296
5 *194:6 0.000183791
6 *194:7 0.00014472
7 *194:8 0.000183791

*RES
1 *194:10 *850:Q 1.4
2 *194:8 *194:10 1.4
3 *194:7 *1040:A0 1.4
4 *194:6 *194:8 0.86998
5 *194:5 *194:7 0.745701
6 *194:5 *194:6 1.4
7 *194:4 *194:5 0.248567
8 *194:3 *194:4 1.4
9 *194:2 *194:3 1.98853
10 *194:1 *194:2 1.4
11 *850:SI *194:1 1.4
*END

*D_NET *195 0.00156396

*CONN
*I *849:SI I *C 75.835 112.375 *L 0.00169 *D SDFFQXL
*I *1115:B0 I *C 79.315 110.055 *L 0.00265 *D AOI22X1
*I *849:Q O *C 82.505 111.795 *L 0 *D SDFFQXL

*CAP
1 *195:1 2.04773e-05
2 *195:2 2.04773e-05
3 *195:3 0.000302099
4 *195:4 0.000302099
5 *195:5 6.13994e-05
6 *195:6 0.000184198
7 *195:7 0.000275207
8 *195:8 0.000122799
9 *195:9 0.000275207

*RES
1 *195:11 *849:Q 1.4
2 *195:9 *195:11 1.4
3 *195:8 *1115:B0 1.4
4 *195:7 *195:9 1.36711
5 *195:6 *195:8 0.745732
6 *195:6 *195:7 1.4
7 *195:5 *195:6 0.372866
8 *195:4 *195:5 1.4
9 *195:3 *195:4 1.49139
10 *195:2 *195:3 1.4
11 *195:1 *195:2 0.124283
12 *849:SI *195:1 1.4
*END

*D_NET *196 0.00180393

*CONN
*I *848:SI I *C 44.225 114.985 *L 0.00169 *D SDFFQXL
*I *1126:A I *C 50.605 109.765 *L 0.00178 *D AND2X1
*I *848:Q O *C 50.895 115.565 *L 0 *D SDFFQXL

*CAP
1 *196:2 0.000484308
2 *196:3 0.000484308
3 *196:4 0.000395644
4 *196:5 3.95644e-05
5 *196:6 0.00035608
6 *196:7 2.2014e-05
7 *196:9 2.2014e-05

*RES
1 *196:10 *848:Q 1.4
2 *196:9 *196:10 1.4
3 *196:7 *196:9 0.124289
4 *196:6 *1126:A 1.4
5 *196:5 *196:7 1.4
6 *196:4 *196:6 2.2371
7 *196:4 *196:5 0.248566
8 *196:3 *196:4 1.4
9 *196:2 *196:3 2.73435
10 *196:1 *196:2 1.4
11 *848:SI *196:1 1.4
*END

*D_NET *197 0.00252884

*CONN
*I *847:SI I *C 35.525 101.935 *L 0.00169 *D SDFFQXL
*I *847:Q O *C 28.855 101.355 *L 0 *D SDFFQXL
*I *1059:B0 I *C 30.595 96.425 *L 0.00274 *D AOI221X1

*CAP
1 *197:1 2.49191e-05
2 *197:2 2.49191e-05
3 *197:3 0.00024704
4 *197:4 0.00024704
5 *197:5 7.47572e-05
6 *197:6 0.000498381
7 *197:7 0.000321152
8 *197:8 0.000423624
9 *197:9 0.000321152
10 *197:10 0.000172928
11 *197:12 0.000172928

*RES
1 *197:14 *1059:B0 1.4
2 *197:12 *197:14 1.4
3 *197:11 *847:Q 1.4
4 *197:10 *197:12 0.86998
5 *197:9 *197:11 1.4
6 *197:8 *197:10 1.4
7 *197:7 *197:9 1.61568
8 *197:6 *197:8 2.11291
9 *197:6 *197:7 1.4
10 *197:5 *197:6 0.372866
11 *197:4 *197:5 1.4
12 *197:3 *197:4 1.24283
13 *197:2 *197:3 1.4
14 *197:1 *197:2 0.124289
15 *847:SI *197:1 1.4
*END

*D_NET *198 0.00173444

*CONN
*I *846:SI I *C 41.325 81.055 *L 0.00169 *D SDFFQXL
*I *1210:A I *C 37.555 78.735 *L 0.00273 *D INVX1
*I *846:Q O *C 34.655 80.475 *L 0 *D SDFFQXL

*CAP
1 *198:1 4.98381e-05
2 *198:2 4.98381e-05
3 *198:3 0.000321152
4 *198:4 0.000321152
5 *198:5 9.96762e-05
6 *198:6 0.000249191
7 *198:7 0.00024704
8 *198:8 0.000149514
9 *198:9 0.00024704

*RES
1 *198:11 *846:Q 1.4
2 *198:9 *198:11 1.4
3 *198:8 *1210:A 1.4
4 *198:7 *198:9 1.24283
5 *198:6 *198:8 0.745732
6 *198:6 *198:7 1.4
7 *198:5 *198:6 0.497155
8 *198:4 *198:5 1.4
9 *198:3 *198:4 1.61568
10 *198:2 *198:3 1.4
11 *198:1 *198:2 0.248578
12 *846:SI *198:1 1.4
*END

*D_NET *199 0.00186228

*CONN
*I *1175:B1 I *C 28.565 43.935 *L 0.00171 *D AOI22XL
*I *845:SI I *C 35.235 47.125 *L 0.00169 *D SDFFQXL
*I *845:Q O *C 28.565 47.705 *L 0 *D SDFFQXL

*CAP
1 *199:2 2.52156e-05
2 *199:3 2.52156e-05
3 *199:4 0.000275818
4 *199:5 0.000325967
5 *199:6 5.01487e-05
6 *199:7 0.000554744
7 *199:8 2.52156e-05
8 *199:9 0.000554744
9 *199:10 2.52156e-05

*RES
1 *199:12 *845:Q 1.4
2 *199:11 *845:SI 1.4
3 *199:10 *199:12 1.4
4 *199:9 *199:11 1.4
5 *199:8 *199:10 0.124283
6 *199:7 *199:9 2.73422
7 *199:6 *199:8 1.4
8 *199:5 *199:7 1.4
9 *199:5 *199:6 0.248577
10 *199:4 *199:5 1.36717
11 *199:3 *199:4 1.4
12 *199:2 *199:3 0.124283
13 *199:1 *199:2 1.4
14 *1175:B1 *199:1 1.4
*END

*D_NET *200 0.00187356

*CONN
*I *844:SI I *C 37.555 70.615 *L 0.00172 *D SDFFQX1
*I *844:Q O *C 30.885 70.035 *L 0 *D SDFFQX1
*I *1352:A0 I *C 32.625 68.005 *L 0.00158 *D AO22XL

*CAP
1 *200:2 0.000559776
2 *200:3 0.000559776
3 *200:4 5.13279e-05
4 *200:5 0.000230975
5 *200:7 0.000179648
6 *200:8 0.000146029
7 *200:9 0.000146029

*RES
1 *200:10 *1352:A0 1.4
2 *200:9 *200:10 1.4
3 *200:8 *200:9 0.745696
4 *200:7 *200:8 1.4
5 *200:5 *200:7 0.869979
6 *200:5 *844:Q 1.4
7 *200:4 *200:5 0.248565
8 *200:3 *200:4 1.4
9 *200:2 *200:3 2.8585
10 *200:1 *200:2 1.4
11 *844:SI *200:1 1.4
*END

*D_NET *201 0.00180697

*CONN
*I *873:D I *C 56.695 39.295 *L 0.00183 *D SDFFQX1
*I *1045:C1 I *C 61.045 44.225 *L 0.00176 *D AOI222XL
*I *873:Q O *C 61.915 38.715 *L 0 *D SDFFQX1

*CAP
1 *201:1 2.16089e-05
2 *201:2 2.16089e-05
3 *201:3 0.000392758
4 *201:4 0.000392758
5 *201:5 0.000410569
6 *201:6 0.000345742
7 *201:7 6.48267e-05
8 *201:9 7.85515e-05
9 *201:10 7.85515e-05

*RES
1 *201:11 *873:Q 1.4
2 *201:10 *201:11 1.4
3 *201:9 *201:10 0.372866
4 *201:7 *201:9 1.4
5 *201:6 *1045:C1 1.4
6 *201:5 *201:7 0.37285
7 *201:5 *201:6 1.98853
8 *201:4 *201:5 1.4
9 *201:3 *201:4 1.86433
10 *201:2 *201:3 1.4
11 *201:1 *201:2 0.124283
12 *873:D *201:1 1.4
*END

*D_NET *202 0.00115442

*CONN
*I *872:D I *C 121.075 41.905 *L 0.00181 *D SDFFQXL
*I *1096:B0 I *C 123.685 44.225 *L 0.00265 *D AOI22X1
*I *872:Q O *C 126.295 42.485 *L 0 *D SDFFQXL

*CAP
1 *202:1 2.02866e-05
2 *202:2 2.02866e-05
3 *202:3 0.000187171
4 *202:4 0.000187171
5 *202:5 6.08598e-05
6 *202:6 0.000182579
7 *202:7 0.000187171
8 *202:8 0.00012172
9 *202:9 0.000187171

*RES
1 *202:11 *872:Q 1.4
2 *202:9 *202:11 1.4
3 *202:8 *1096:B0 1.4
4 *202:7 *202:9 1.11855
5 *202:6 *202:8 0.745699
6 *202:6 *202:7 1.4
7 *202:5 *202:6 0.372849
8 *202:4 *202:5 1.4
9 *202:3 *202:4 1.11855
10 *202:2 *202:3 1.4
11 *202:1 *202:2 0.124283
12 *872:D *202:1 1.4
*END

*D_NET *203 0.00160072

*CONN
*I *871:D I *C 123.975 39.295 *L 0.00181 *D SDFFQXL
*I *1076:A0 I *C 119.915 44.515 *L 0.00264 *D AOI22X1
*I *871:Q O *C 118.755 38.715 *L 0 *D SDFFQXL

*CAP
1 *203:1 2.02866e-05
2 *203:2 2.02866e-05
3 *203:3 0.000291155
4 *203:4 0.000291155
5 *203:5 0.000385445
6 *203:6 0.000344872
7 *203:7 4.05732e-05
8 *203:9 8.31871e-05
9 *203:10 8.31871e-05
10 *203:11 2.02866e-05
11 *203:12 2.02866e-05

*RES
1 *203:12 *871:Q 1.4
2 *203:11 *203:12 0.124283
3 *203:10 *203:11 1.4
4 *203:9 *203:10 0.497132
5 *203:7 *203:9 1.4
6 *203:6 *1076:A0 1.4
7 *203:5 *203:7 0.248566
8 *203:5 *203:6 2.11281
9 *203:4 *203:5 1.4
10 *203:3 *203:4 1.73996
11 *203:2 *203:3 1.4
12 *203:1 *203:2 0.124283
13 *871:D *203:1 1.4
*END

*D_NET *204 0.00185934

*CONN
*I *870:D I *C 67.425 39.295 *L 0.00181 *D SDFFQXL
*I *1081:A1 I *C 66.555 43.935 *L 0.00171 *D AOI22XL
*I *870:Q O *C 62.205 38.715 *L 0 *D SDFFQXL

*CAP
1 *204:1 4.32178e-05
2 *204:2 4.32178e-05
3 *204:3 0.000104735
4 *204:4 0.000104735
5 *204:5 0.000345742
6 *204:6 0.000302524
7 *204:7 4.32178e-05
8 *204:8 2.61838e-05
9 *204:9 0.000366574
10 *204:10 2.61838e-05
11 *204:11 0.000366574
12 *204:13 4.32178e-05
13 *204:15 4.32178e-05

*RES
1 *204:15 *870:Q 1.4
2 *204:13 *204:15 0.248567
3 *204:12 *1081:A1 1.4
4 *204:11 *204:13 1.4
5 *204:10 *204:12 1.4
6 *204:9 *204:11 1.74004
7 *204:8 *204:10 0.124289
8 *204:7 *204:9 1.4
9 *204:6 *204:8 1.4
10 *204:5 *204:7 0.248567
11 *204:5 *204:6 1.73997
12 *204:4 *204:5 1.4
13 *204:3 *204:4 0.497155
14 *204:2 *204:3 1.4
15 *204:1 *204:2 0.248567
16 *870:D *204:1 1.4
*END

*D_NET *205 0.00143412

*CONN
*I *1063:B0 I *C 123.395 73.515 *L 0.00265 *D AOI22X1
*I *869:D I *C 123.975 70.615 *L 0.00181 *D SDFFQXL
*I *869:Q O *C 118.755 70.035 *L 0 *D SDFFQXL

*CAP
1 *205:2 2.20611e-05
2 *205:3 2.20611e-05
3 *205:4 0.000248248
4 *205:5 0.000297898
5 *205:6 2.20611e-05
6 *205:7 4.96496e-05
7 *205:8 2.20611e-05
8 *205:9 0.000375038
9 *205:11 0.000375038

*RES
1 *205:13 *869:Q 1.4
2 *205:11 *205:13 1.4
3 *205:10 *869:D 1.4
4 *205:9 *205:11 2.11291
5 *205:8 *205:10 1.4
6 *205:7 *205:9 1.4
7 *205:6 *205:8 0.124289
8 *205:5 *205:7 0.248577
9 *205:5 *205:6 1.4
10 *205:4 *205:5 1.24289
11 *205:3 *205:4 1.4
12 *205:2 *205:3 0.124289
13 *205:1 *205:2 1.4
14 *1063:B0 *205:1 1.4
*END

*D_NET *206 0.00230101

*CONN
*I *1042:B0 I *C 97.1825 73.1525 *L 0.00163 *D AOI222XL
*I *868:Q O *C 99.615 79.025 *L 0 *D SDFFQXL
*I *868:D I *C 104.835 78.445 *L 0.00181 *D SDFFQXL

*CAP
1 *206:1 8.89829e-06
2 *206:2 1.45608e-05
3 *206:3 5.66255e-06
4 *206:4 7.84106e-05
5 *206:5 7.84106e-05
6 *206:6 0.000422855
7 *206:7 0.000422855
8 *206:8 0.000128479
9 *206:9 0.000585398
10 *206:10 4.92801e-05
11 *206:11 0.000456919
12 *206:12 4.92801e-05

*RES
1 *206:13 *868:D 1.4
2 *206:12 *868:Q 1.4
3 *206:11 *206:13 1.4
4 *206:10 *206:12 0.248577
5 *206:9 *206:11 2.2371
6 *206:9 *206:10 1.4
7 *206:8 *206:9 0.621414
8 *206:7 *206:8 1.4
9 *206:6 *206:7 2.23719
10 *206:5 *206:6 1.4
11 *206:4 *206:5 0.372866
12 *206:3 *206:4 1.4
13 *206:2 *206:3 0.0300006
14 *206:1 *206:2 0.0471438
15 *1042:B0 *206:1 1.4
*END

*D_NET *207 0.00124563

*CONN
*I *867:D I *C 119.335 101.935 *L 0.00181 *D SDFFQXL
*I *867:Q O *C 124.555 101.355 *L 0 *D SDFFQXL
*I *1071:B0 I *C 120.205 99.615 *L 0.00265 *D AOI22X1

*CAP
1 *207:2 2.1959e-05
2 *207:3 2.1959e-05
3 *207:4 4.59092e-05
4 *207:5 0.000183637
5 *207:6 0.000373303
6 *207:7 0.000137728
7 *207:8 0.000373303
8 *207:9 4.39181e-05
9 *207:11 4.39181e-05

*RES
1 *207:13 *1071:B0 1.4
2 *207:11 *207:13 1.4
3 *207:10 *867:Q 1.4
4 *207:9 *207:11 0.248577
5 *207:8 *207:10 1.4
6 *207:7 *207:9 1.4
7 *207:6 *207:8 2.11291
8 *207:5 *207:7 0.745696
9 *207:5 *207:6 1.4
10 *207:4 *207:5 0.248565
11 *207:3 *207:4 1.4
12 *207:2 *207:3 0.124289
13 *207:1 *207:2 1.4
14 *867:D *207:1 1.4
*END

*D_NET *208 0.00156471

*CONN
*I *866:D I *C 99.325 109.765 *L 0.00181 *D SDFFQXL
*I *866:Q O *C 94.105 110.345 *L 0 *D SDFFQXL
*I *1097:A0 I *C 93.815 107.155 *L 0.00264 *D AOI22X1

*CAP
1 *208:1 2.04665e-05
2 *208:2 2.04665e-05
3 *208:3 0.000450338
4 *208:4 0.000450338
5 *208:5 6.13994e-05
6 *208:6 6.13994e-05
7 *208:7 2.50188e-05
8 *208:9 2.50188e-05
9 *208:10 0.000225131
10 *208:11 0.000225131

*RES
1 *208:11 *1097:A0 1.4
2 *208:10 *208:11 1.36718
3 *208:9 *208:10 1.4
4 *208:7 *208:9 0.124283
5 *208:6 *866:Q 1.4
6 *208:6 *208:7 1.4
7 *208:5 *208:6 0.372866
8 *208:4 *208:5 1.4
9 *208:3 *208:4 2.23709
10 *208:2 *208:3 1.4
11 *208:1 *208:2 0.124289
12 *866:D *208:1 1.4
*END

*D_NET *209 0.00152409

*CONN
*I *865:D I *C 55.825 62.785 *L 0.00183 *D SDFFQX1
*I *1124:AN I *C 56.985 60.175 *L 0.00174 *D NOR2BXL
*I *865:Q O *C 61.045 63.365 *L 0 *D SDFFQX1

*CAP
1 *209:1 2.412e-05
2 *209:2 2.412e-05
3 *209:3 0.000105024
4 *209:4 0.000105024
5 *209:5 0.0002412
6 *209:6 4.82399e-05
7 *209:7 0.00019296
8 *209:8 0.000367583
9 *209:10 0.000367583
10 *209:11 2.412e-05
11 *209:12 2.412e-05

*RES
1 *209:12 *865:Q 1.4
2 *209:11 *209:12 0.124284
3 *209:10 *209:11 1.4
4 *209:8 *209:10 1.73996
5 *209:7 *1124:AN 1.4
6 *209:6 *209:8 1.4
7 *209:5 *209:7 0.994268
8 *209:5 *209:6 0.248567
9 *209:4 *209:5 1.4
10 *209:3 *209:4 0.497131
11 *209:2 *209:3 1.4
12 *209:1 *209:2 0.124284
13 *865:D *209:1 1.4
*END

*D_NET *210 0.00226509

*CONN
*I *1111:A0 I *C 61.915 101.935 *L 0.00264 *D AOI22X1
*I *864:D I *C 63.075 109.765 *L 0.00181 *D SDFFQXL
*I *864:Q O *C 57.855 110.345 *L 0 *D SDFFQXL

*CAP
1 *210:2 5.25096e-05
2 *210:3 5.25096e-05
3 *210:4 0.000584772
4 *210:5 0.000584772
5 *210:6 0.000454306
6 *210:7 5.04785e-05
7 *210:8 0.000403828
8 *210:10 4.09545e-05
9 *210:12 4.09545e-05

*RES
1 *210:12 *864:Q 1.4
2 *210:10 *210:12 0.248567
3 *210:9 *864:D 1.4
4 *210:8 *210:10 1.4
5 *210:7 *210:9 1.4
6 *210:6 *210:8 1.98853
7 *210:6 *210:7 0.248566
8 *210:5 *210:6 1.4
9 *210:4 *210:5 3.3557
10 *210:3 *210:4 1.4
11 *210:2 *210:3 0.248577
12 *210:1 *210:2 1.4
13 *1111:A0 *210:1 1.4
*END

*D_NET *211 0.00130818

*CONN
*I *863:D I *C 56.115 112.375 *L 0.00181 *D SDFFQXL
*I *863:Q O *C 50.895 111.795 *L 0 *D SDFFQXL
*I *1094:B0 I *C 54.955 110.055 *L 0.00265 *D AOI22X1

*CAP
1 *211:2 5.04785e-05
2 *211:3 5.04785e-05
3 *211:4 4.09545e-05
4 *211:5 0.000163818
5 *211:6 0.000389314
6 *211:7 0.000122864
7 *211:8 0.000389314
8 *211:9 5.04785e-05
9 *211:11 5.04785e-05

*RES
1 *211:13 *1094:B0 1.4
2 *211:11 *211:13 1.4
3 *211:10 *863:Q 1.4
4 *211:9 *211:11 0.248566
5 *211:8 *211:10 1.4
6 *211:7 *211:9 1.4
7 *211:6 *211:8 1.98855
8 *211:5 *211:7 0.7457
9 *211:5 *211:6 1.4
10 *211:4 *211:5 0.248567
11 *211:3 *211:4 1.4
12 *211:2 *211:3 0.248566
13 *211:1 *211:2 1.4
14 *863:D *211:1 1.4
*END

*D_NET *212 0.00122771

*CONN
*I *862:D I *C 40.165 114.985 *L 0.00183 *D SDFFQX1
*I *1104:A0 I *C 39.875 112.375 *L 0.00264 *D AOI22X1
*I *862:Q O *C 34.945 115.565 *L 0 *D SDFFQX1

*CAP
1 *212:2 2.2014e-05
2 *212:3 2.2014e-05
3 *212:4 0.000217604
4 *212:5 3.95644e-05
5 *212:6 0.00017804
6 *212:7 0.000374238
7 *212:9 0.000374238

*RES
1 *212:10 *862:Q 1.4
2 *212:9 *212:10 1.4
3 *212:7 *212:9 2.11291
4 *212:6 *1104:A0 1.4
5 *212:5 *212:7 1.4
6 *212:4 *212:6 1.11855
7 *212:4 *212:5 0.248566
8 *212:3 *212:4 1.4
9 *212:2 *212:3 0.124289
10 *212:1 *212:2 1.4
11 *862:D *212:1 1.4
*END

*D_NET *213 0.00210321

*CONN
*I *1156:A I *C 22.475 91.205 *L 0.00162 *D NOR2XL
*I *861:D I *C 18.415 96.715 *L 0.00183 *D SDFFQX1
*I *861:Q O *C 13.195 96.135 *L 0 *D SDFFQX1

*CAP
1 *213:1 0.000357377
2 *213:2 0.000357377
3 *213:3 0.00028533
4 *213:4 0.000652183
5 *213:5 4.20444e-05
6 *213:6 0.000366853
7 *213:7 4.20444e-05

*RES
1 *213:8 *861:Q 1.4
2 *213:7 *861:D 1.4
3 *213:6 *213:8 1.4
4 *213:5 *213:7 0.248565
5 *213:4 *213:6 2.2371
6 *213:4 *213:5 1.4
7 *213:3 *213:4 1.73996
8 *213:2 *213:3 1.4
9 *213:1 *213:2 2.11281
10 *1156:A *213:1 1.4
*END

*D_NET *214 0.00162474

*CONN
*I *1185:B0 I *C 21.895 49.445 *L 0.00265 *D AOI22X1
*I *860:D I *C 17.835 47.125 *L 0.00183 *D SDFFQX1
*I *860:Q O *C 12.615 47.705 *L 0 *D SDFFQX1

*CAP
1 *214:2 2.03652e-05
2 *214:3 2.03652e-05
3 *214:4 0.000120513
4 *214:5 0.000120513
5 *214:6 0.000264747
6 *214:7 0.000631321
7 *214:8 4.0171e-05
8 *214:9 0.000366573
9 *214:10 4.0171e-05

*RES
1 *214:11 *860:Q 1.4
2 *214:10 *860:D 1.4
3 *214:9 *214:11 1.4
4 *214:8 *214:10 0.248567
5 *214:7 *214:9 2.2371
6 *214:7 *214:8 1.4
7 *214:6 *214:7 1.61568
8 *214:5 *214:6 1.4
9 *214:4 *214:5 0.7457
10 *214:3 *214:4 1.4
11 *214:2 *214:3 0.124283
12 *214:1 *214:2 1.4
13 *1185:B0 *214:1 1.4
*END

*D_NET *215 0.00205373

*CONN
*I *1154:AN I *C 18.125 78.735 *L 0.00178 *D NAND2BX1
*I *859:D I *C 17.835 73.225 *L 0.00183 *D SDFFQX1
*I *859:Q O *C 12.615 73.805 *L 0 *D SDFFQX1

*CAP
1 *215:2 0.000101904
2 *215:3 0.000101904
3 *215:4 0.000384112
4 *215:5 0.000384112
5 *215:6 0.000123838
6 *215:7 0.000495354
7 *215:8 4.54941e-05
8 *215:9 0.000371515
9 *215:10 4.54941e-05

*RES
1 *215:11 *859:Q 1.4
2 *215:10 *859:D 1.4
3 *215:9 *215:11 1.4
4 *215:8 *215:10 0.248567
5 *215:7 *215:9 2.2371
6 *215:7 *215:8 1.4
7 *215:6 *215:7 0.745699
8 *215:5 *215:6 1.4
9 *215:4 *215:5 2.11282
10 *215:3 *215:4 1.4
11 *215:2 *215:3 0.621416
12 *215:1 *215:2 1.4
13 *1154:AN *215:1 1.4
*END

*D_NET *216 0.00154545

*CONN
*I *888:SI I *C 59.885 54.955 *L 0.00169 *D SDFFQXL
*I *1103:B1 I *C 59.885 52.925 *L 0.00171 *D AOI22XL
*I *888:Q O *C 53.215 54.375 *L 0 *D SDFFQXL

*CAP
1 *216:1 4.82399e-05
2 *216:2 0.00016884
3 *216:3 0.000603886
4 *216:4 0.0001206
5 *216:5 0.000603886

*RES
1 *216:7 *888:Q 1.4
2 *216:5 *216:7 1.4
3 *216:4 *1103:B1 1.4
4 *216:3 *216:5 2.85851
5 *216:2 *216:4 0.621418
6 *216:2 *216:3 1.4
7 *216:1 *216:2 0.248567
8 *888:SI *216:1 1.4
*END

*D_NET *217 0.00195073

*CONN
*I *1088:B0 I *C 95.845 47.415 *L 0.00265 *D AOI22X1
*I *887:Q O *C 98.745 47.705 *L 0 *D SDFFQXL
*I *887:SI I *C 105.415 47.125 *L 0.00169 *D SDFFQXL

*CAP
1 *217:1 4.32789e-05
2 *217:2 4.32789e-05
3 *217:3 0.000255069
4 *217:4 0.000255069
5 *217:5 2.16395e-05
6 *217:6 8.65579e-05
7 *217:8 6.49184e-05
8 *217:9 0.000570173
9 *217:10 0.000570173
10 *217:11 2.02866e-05
11 *217:12 2.02866e-05

*RES
1 *217:12 *887:SI 1.4
2 *217:11 *217:12 0.124283
3 *217:10 *217:11 1.4
4 *217:9 *217:10 2.85862
5 *217:8 *217:9 1.4
6 *217:6 *217:8 0.372866
7 *217:6 *887:Q 1.4
8 *217:5 *217:6 0.124289
9 *217:4 *217:5 1.4
10 *217:3 *217:4 1.24289
11 *217:2 *217:3 1.4
12 *217:1 *217:2 0.248578
13 *1088:B0 *217:1 1.4
*END

*D_NET *218 0.00156707

*CONN
*I *886:SI I *C 109.765 49.735 *L 0.00169 *D SDFFQXL
*I *1078:B0 I *C 109.765 47.415 *L 0.00265 *D AOI22X1
*I *886:Q O *C 103.095 49.155 *L 0 *D SDFFQXL

*CAP
1 *218:1 0.000162293
2 *218:2 0.000162293
3 *218:4 2.07968e-05
4 *218:5 2.07968e-05
5 *218:6 0.00012172
6 *218:7 0.00012172
7 *218:8 0.000478725
8 *218:9 0.000478725

*RES
1 *218:10 *886:Q 1.4
2 *218:9 *218:10 1.4
3 *218:8 *218:9 2.73425
4 *218:7 *218:8 1.4
5 *218:6 *218:7 0.745699
6 *218:5 *218:6 1.4
7 *218:4 *218:5 0.124283
8 *218:2 *218:4 1.4
9 *218:2 *1078:B0 1.4
10 *218:1 *218:2 0.994265
11 *886:SI *218:1 1.4
*END

*D_NET *219 0.00221102

*CONN
*I *885:SI I *C 70.905 47.125 *L 0.00169 *D SDFFQXL
*I *1080:B1 I *C 66.845 52.925 *L 0.00171 *D AOI22XL
*I *885:Q O *C 64.235 47.705 *L 0 *D SDFFQXL

*CAP
1 *219:1 2.16089e-05
2 *219:2 2.16089e-05
3 *219:3 0.000366574
4 *219:4 0.000366574
5 *219:5 8.64356e-05
6 *219:6 0.000460064
7 *219:7 0.000373629
8 *219:8 0.000235655
9 *219:10 0.000235655
10 *219:11 2.16089e-05
11 *219:12 2.16089e-05

*RES
1 *219:12 *885:Q 1.4
2 *219:11 *219:12 0.124283
3 *219:10 *219:11 1.4
4 *219:8 *219:10 1.1186
5 *219:7 *1080:B1 1.4
6 *219:6 *219:8 1.4
7 *219:6 *219:7 2.11282
8 *219:5 *219:6 0.497134
9 *219:4 *219:5 1.4
10 *219:3 *219:4 1.74004
11 *219:2 *219:3 1.4
12 *219:1 *219:2 0.124283
13 *885:SI *219:1 1.4
*END

*D_NET *220 0.00175955

*CONN
*I *884:SI I *C 105.705 70.615 *L 0.00169 *D SDFFQXL
*I *1100:B0 I *C 110.055 73.515 *L 0.00265 *D AOI22X1
*I *884:Q O *C 112.375 70.035 *L 0 *D SDFFQXL

*CAP
1 *220:2 0.000330916
2 *220:3 0.000330916
3 *220:4 7.44744e-05
4 *220:5 0.000248248
5 *220:6 0.000176488
6 *220:7 0.000173774
7 *220:8 0.000176488
8 *220:10 0.000124124
9 *220:11 0.000124124

*RES
1 *220:11 *884:Q 1.4
2 *220:10 *220:11 0.621444
3 *220:8 *220:10 1.4
4 *220:7 *1100:B0 1.4
5 *220:6 *220:8 0.99431
6 *220:5 *220:7 0.870021
7 *220:5 *220:6 1.4
8 *220:4 *220:5 0.372866
9 *220:3 *220:4 1.4
10 *220:2 *220:3 1.86433
11 *220:1 *220:2 1.4
12 *884:SI *220:1 1.4
*END

*D_NET *221 0.00214066

*CONN
*I *883:SI I *C 97.585 65.395 *L 0.00169 *D SDFFQXL
*I *1109:B0 I *C 94.105 70.325 *L 0.00265 *D AOI22X1
*I *883:Q O *C 90.915 64.815 *L 0 *D SDFFQXL

*CAP
1 *221:2 0.000313642
2 *221:3 0.000313642
3 *221:4 2.34591e-05
4 *221:5 0.000398805
5 *221:6 0.000375346
6 *221:7 0.000287505
7 *221:9 0.000287505
8 *221:10 7.03774e-05
9 *221:11 7.03774e-05

*RES
1 *221:11 *883:Q 1.4
2 *221:10 *221:11 0.372864
3 *221:9 *221:10 1.4
4 *221:7 *221:9 1.36718
5 *221:6 *1109:B0 1.4
6 *221:5 *221:7 1.4
7 *221:5 *221:6 1.98861
8 *221:4 *221:5 0.124288
9 *221:3 *221:4 1.4
10 *221:2 *221:3 1.49146
11 *221:1 *221:2 1.4
12 *883:SI *221:1 1.4
*END

*D_NET *222 0.00209398

*CONN
*I *882:SI I *C 108.025 112.375 *L 0.00169 *D SDFFQXL
*I *1065:B0 I *C 110.345 104.835 *L 0.00265 *D AOI22X1
*I *882:Q O *C 114.695 111.795 *L 0 *D SDFFQXL

*CAP
1 *222:1 5.50873e-05
2 *222:2 5.50873e-05
3 *222:3 0.000153402
4 *222:4 0.000153402
5 *222:5 7.34497e-05
6 *222:6 0.000532511
7 *222:7 0.000287628
8 *222:8 0.000459061
9 *222:9 0.000287628
10 *222:11 1.83624e-05
11 *222:12 1.83624e-05

*RES
1 *222:12 *882:Q 1.4
2 *222:11 *222:12 0.124288
3 *222:9 *222:11 1.4
4 *222:8 *1065:B0 1.4
5 *222:7 *222:9 1.86425
6 *222:6 *222:8 3.1072
7 *222:6 *222:7 1.4
8 *222:5 *222:6 0.497152
9 *222:4 *222:5 1.4
10 *222:3 *222:4 0.994266
11 *222:2 *222:3 1.4
12 *222:1 *222:2 0.372864
13 *882:SI *222:1 1.4
*END

*D_NET *223 0.00212874

*CONN
*I *1097:B0 I *C 92.655 106.865 *L 0.00265 *D AOI22X1
*I *881:Q O *C 90.625 111.795 *L 0 *D SDFFQXL
*I *881:SI I *C 97.295 112.375 *L 0.00169 *D SDFFQXL

*CAP
1 *223:2 0.000100075
2 *223:3 0.000100075
3 *223:4 0.00034793
4 *223:5 0.00034793
5 *223:6 0.000575432
6 *223:7 0.000500376
7 *223:8 7.50563e-05
8 *223:9 4.09329e-05
9 *223:11 4.09329e-05

*RES
1 *223:11 *881:SI 1.4
2 *223:10 *881:Q 1.4
3 *223:9 *223:11 0.248578
4 *223:8 *223:10 1.4
5 *223:7 *223:9 1.4
6 *223:6 *223:8 0.372849
7 *223:6 *223:7 2.48566
8 *223:5 *223:6 1.4
9 *223:4 *223:5 2.11291
10 *223:3 *223:4 1.4
11 *223:2 *223:3 0.497132
12 *223:1 *223:2 1.4
13 *1097:B0 *223:1 1.4
*END

*D_NET *224 0.00193836

*CONN
*I *880:SI I *C 69.165 78.445 *L 0.00169 *D SDFFQXL
*I *880:Q O *C 62.495 79.025 *L 0 *D SDFFQXL
*I *1125:A I *C 62.205 81.055 *L 0.00157 *D NAND2XL

*CAP
1 *224:1 2.41743e-05
2 *224:2 2.41743e-05
3 *224:3 0.000603886
4 *224:4 0.000630142
5 *224:5 7.26314e-05
6 *224:6 2.62559e-05
7 *224:7 7.26314e-05
8 *224:8 0.000242232
9 *224:10 0.000242232

*RES
1 *224:10 *1125:A 1.4
2 *224:8 *224:10 1.24288
3 *224:7 *880:Q 1.4
4 *224:6 *224:8 1.4
5 *224:5 *224:7 0.372864
6 *224:4 *224:6 0.124283
7 *224:4 *224:5 1.4
8 *224:3 *224:4 2.85851
9 *224:2 *224:3 1.4
10 *224:1 *224:2 0.124286
11 *880:SI *224:1 1.4
*END

*D_NET *225 0.00202105

*CONN
*I *879:SI I *C 65.685 112.375 *L 0.00169 *D SDFFQXL
*I *1049:B0 I *C 63.075 106.865 *L 0.00265 *D AOI22X1
*I *879:Q O *C 59.015 111.795 *L 0 *D SDFFQXL

*CAP
1 *225:1 2.04773e-05
2 *225:2 2.04773e-05
3 *225:3 0.000227153
4 *225:4 0.000227153
5 *225:5 6.14318e-05
6 *225:6 0.000409545
7 *225:7 0.000353349
8 *225:8 0.000348114
9 *225:9 0.000353349

*RES
1 *225:11 *879:Q 1.4
2 *225:9 *225:11 1.4
3 *225:8 *1049:B0 1.4
4 *225:7 *225:9 1.73996
5 *225:6 *225:8 2.11282
6 *225:6 *225:7 1.4
7 *225:5 *225:6 0.37285
8 *225:4 *225:5 1.4
9 *225:3 *225:4 1.11855
10 *225:2 *225:3 1.4
11 *225:1 *225:2 0.124283
12 *879:SI *225:1 1.4
*END

*D_NET *226 0.00151866

*CONN
*I *1009:A0 I *C 46.545 106.865 *L 0.00265 *D AOI21X1
*I *878:Q O *C 44.515 106.575 *L 0 *D SDFFQXL
*I *878:SI I *C 37.845 107.155 *L 0.00169 *D SDFFQXL

*CAP
1 *226:1 3.95644e-05
2 *226:2 3.95644e-05
3 *226:3 0.000154098
4 *226:4 0.000154098
5 *226:5 1.97822e-05
6 *226:6 5.93466e-05
7 *226:7 3.95644e-05
8 *226:9 0.000506322
9 *226:10 0.000506322

*RES
1 *226:11 *878:SI 1.4
2 *226:10 *226:11 1.4
3 *226:9 *226:10 2.85864
4 *226:7 *226:9 1.4
5 *226:6 *878:Q 1.4
6 *226:6 *226:7 0.248566
7 *226:5 *226:6 0.124283
8 *226:4 *226:5 1.4
9 *226:3 *226:4 0.870021
10 *226:2 *226:3 1.4
11 *226:1 *226:2 0.248566
12 *1009:A0 *226:1 1.4
*END

*D_NET *227 0.00171233

*CONN
*I *877:SI I *C 18.995 112.375 *L 0.00169 *D SDFFQXL
*I *1145:B0 I *C 17.255 104.835 *L 0.00265 *D AOI22X1
*I *877:Q O *C 12.325 111.795 *L 0 *D SDFFQXL

*CAP
1 *227:2 0.000106097
2 *227:3 0.000106097
3 *227:4 3.4574e-05
4 *227:5 0.000449462
5 *227:6 0.000300608
6 *227:7 0.000414888
7 *227:8 0.000300608

*RES
1 *227:10 *877:Q 1.4
2 *227:8 *227:10 1.4
3 *227:7 *1145:B0 1.4
4 *227:6 *227:8 2.11282
5 *227:5 *227:7 2.9829
6 *227:5 *227:6 1.4
7 *227:4 *227:5 0.248575
8 *227:3 *227:4 1.4
9 *227:2 *227:3 0.745701
10 *227:1 *227:2 1.4
11 *877:SI *227:1 1.4
*END

*D_NET *228 0.00144205

*CONN
*I *876:SI I *C 19.285 88.885 *L 0.00169 *D SDFFQXL
*I *1179:B0 I *C 16.675 85.985 *L 0.00262 *D OAI22X1
*I *876:Q O *C 12.615 89.465 *L 0 *D SDFFQXL

*CAP
1 *228:2 0.000183426
2 *228:3 0.000183426
3 *228:4 0.000252266
4 *228:5 4.20444e-05
5 *228:6 0.000210222
6 *228:7 0.00028533
7 *228:9 0.00028533

*RES
1 *228:10 *876:Q 1.4
2 *228:9 *228:10 1.4
3 *228:7 *228:9 1.73996
4 *228:6 *1179:B0 1.4
5 *228:5 *228:7 1.4
6 *228:4 *228:6 1.24283
7 *228:4 *228:5 0.248565
8 *228:3 *228:4 1.4
9 *228:2 *228:3 1.11855
10 *228:1 *228:2 1.4
11 *876:SI *228:1 1.4
*END

*D_NET *229 0.0014407

*CONN
*I *875:SI I *C 18.415 52.345 *L 0.00172 *D SDFFQX1
*I *1184:B0 I *C 16.385 54.665 *L 0.00265 *D AOI22X1
*I *875:Q O *C 11.745 52.925 *L 0 *D SDFFQX1

*CAP
1 *229:1 2.14163e-05
2 *229:2 2.14163e-05
3 *229:3 0.000142556
4 *229:4 0.000142556
5 *229:5 8.96574e-05
6 *229:6 0.000203393
7 *229:7 0.000113735
8 *229:8 0.000330236
9 *229:10 0.000330236
10 *229:11 2.2747e-05
11 *229:12 2.2747e-05

*RES
1 *229:12 *875:Q 1.4
2 *229:11 *229:12 0.124284
3 *229:10 *229:11 1.4
4 *229:8 *229:10 1.98853
5 *229:7 *1184:B0 1.4
6 *229:6 *229:8 1.4
7 *229:6 *229:7 0.621418
8 *229:5 *229:6 0.497134
9 *229:4 *229:5 1.4
10 *229:3 *229:4 0.869982
11 *229:2 *229:3 1.4
12 *229:1 *229:2 0.124283
13 *875:SI *229:1 1.4
*END

*D_NET *230 0.00249201

*CONN
*I *874:SI I *C 17.835 60.175 *L 0.00172 *D SDFFQX1
*I *1133:B0 I *C 15.805 68.295 *L 0.00274 *D AOI221X1
*I *874:Q O *C 11.165 59.595 *L 0 *D SDFFQX1

*CAP
1 *230:1 6.82411e-05
2 *230:2 6.82411e-05
3 *230:3 0.000123838
4 *230:4 0.000123838
5 *230:5 0.000659664
6 *230:6 0.000568676
7 *230:7 9.09882e-05
8 *230:8 2.06397e-05
9 *230:9 0.000350875
10 *230:10 2.06397e-05
11 *230:11 0.000350875
12 *230:13 2.2747e-05
13 *230:15 2.2747e-05

*RES
1 *230:15 *874:Q 1.4
2 *230:13 *230:15 0.124284
3 *230:12 *1133:B0 1.4
4 *230:11 *230:13 1.4
5 *230:10 *230:12 1.4
6 *230:9 *230:11 2.11281
7 *230:8 *230:10 0.124283
8 *230:7 *230:9 1.4
9 *230:6 *230:8 1.4
10 *230:5 *230:7 0.497134
11 *230:5 *230:6 3.10709
12 *230:4 *230:5 1.4
13 *230:3 *230:4 0.745699
14 *230:2 *230:3 1.4
15 *230:1 *230:2 0.372851
16 *874:SI *230:1 1.4
*END

*D_NET *231 0.00144647

*CONN
*I *903:D I *C 53.795 49.735 *L 0.00183 *D SDFFQX1
*I *1101:A0 I *C 52.925 52.345 *L 0.00264 *D AOI22X1
*I *903:Q O *C 48.575 49.155 *L 0 *D SDFFQX1

*CAP
1 *231:1 2.16089e-05
2 *231:2 2.16089e-05
3 *231:3 7.85515e-05
4 *231:4 7.85515e-05
5 *231:5 0.000217344
6 *231:6 0.000174127
7 *231:7 4.32178e-05
8 *231:9 0.000380655
9 *231:10 0.000380655
10 *231:11 2.50744e-05
11 *231:12 2.50744e-05

*RES
1 *231:12 *903:Q 1.4
2 *231:11 *231:12 0.124289
3 *231:10 *231:11 1.4
4 *231:9 *231:10 1.86426
5 *231:7 *231:9 1.4
6 *231:6 *1101:A0 1.4
7 *231:5 *231:7 0.248567
8 *231:5 *231:6 0.994268
9 *231:4 *231:5 1.4
10 *231:3 *231:4 0.372866
11 *231:2 *231:3 1.4
12 *231:1 *231:2 0.124283
13 *903:D *231:1 1.4
*END

*D_NET *232 0.00164679

*CONN
*I *1091:A1 I *C 90.045 52.925 *L 0.00171 *D AOI22XL
*I *902:D I *C 88.305 49.735 *L 0.00181 *D SDFFQXL
*I *902:Q O *C 93.525 49.155 *L 0 *D SDFFQXL

*CAP
1 *232:2 7.84106e-05
2 *232:3 7.84106e-05
3 *232:4 0.000242583
4 *232:5 0.000285862
5 *232:6 7.65207e-05
6 *232:7 4.32789e-05
7 *232:8 7.65207e-05
8 *232:9 0.000382604
9 *232:11 0.000382604

*RES
1 *232:13 *902:Q 1.4
2 *232:11 *232:13 1.4
3 *232:10 *902:D 1.4
4 *232:9 *232:11 1.86433
5 *232:8 *232:10 1.4
6 *232:7 *232:9 1.4
7 *232:6 *232:8 0.372866
8 *232:5 *232:7 0.248578
9 *232:5 *232:6 1.4
10 *232:4 *232:5 1.36717
11 *232:3 *232:4 1.4
12 *232:2 *232:3 0.372866
13 *232:1 *232:2 1.4
14 *1091:A1 *232:1 1.4
*END

*D_NET *233 0.00261692

*CONN
*I *1072:A1 I *C 85.695 52.925 *L 0.00171 *D AOI22XL
*I *901:Q O *C 84.825 43.935 *L 0 *D SDFFQXL
*I *901:D I *C 90.045 44.515 *L 0.00181 *D SDFFQXL

*CAP
1 *233:2 0.000130684
2 *233:3 0.000130684
3 *233:4 0.000588815
4 *233:5 0.000632094
5 *233:6 0.000204055
6 *233:7 4.32789e-05
7 *233:8 0.000204055
8 *233:9 0.000255069
9 *233:10 8.65579e-05
10 *233:11 0.000255069
11 *233:12 8.65579e-05

*RES
1 *233:13 *901:D 1.4
2 *233:12 *901:Q 1.4
3 *233:11 *233:13 1.4
4 *233:10 *233:12 0.497155
5 *233:9 *233:11 1.24289
6 *233:8 *233:10 1.4
7 *233:7 *233:9 1.4
8 *233:6 *233:8 0.99431
9 *233:5 *233:7 0.248578
10 *233:5 *233:6 1.4
11 *233:4 *233:5 3.35579
12 *233:3 *233:4 1.4
13 *233:2 *233:3 0.621444
14 *233:1 *233:2 1.4
15 *1072:A1 *233:1 1.4
*END

*D_NET *234 0.00165879

*CONN
*I *1057:A1 I *C 65.975 59.5425 *L 0.00166 *D AOI32XL
*I *900:D I *C 64.525 57.565 *L 0.00181 *D SDFFQXL
*I *900:Q O *C 59.305 58.145 *L 0 *D SDFFQXL

*CAP
1 *234:1 4.15861e-06
2 *234:2 4.15861e-06
3 *234:3 2.62559e-05
4 *234:4 2.62559e-05
5 *234:5 0.0001206
6 *234:6 0.0001206
7 *234:7 0.000157535
8 *234:8 0.000630142
9 *234:9 4.82399e-05
10 *234:10 0.000472606
11 *234:11 4.82399e-05

*RES
1 *234:12 *900:Q 1.4
2 *234:11 *900:D 1.4
3 *234:10 *234:12 1.4
4 *234:9 *234:11 0.248567
5 *234:8 *234:10 2.23709
6 *234:8 *234:9 1.4
7 *234:7 *234:8 0.745697
8 *234:6 *234:7 1.4
9 *234:5 *234:6 0.621418
10 *234:4 *234:5 1.4
11 *234:3 *234:4 0.124283
12 *234:2 *234:3 1.4
13 *234:1 *234:2 0.0214282
14 *1057:A1 *234:1 1.4
*END

*D_NET *235 0.00142946

*CONN
*I *1141:A0 I *C 81.345 88.885 *L 0.00264 *D AOI22X1
*I *899:D I *C 81.055 91.495 *L 0.00181 *D SDFFQXL
*I *899:Q O *C 75.835 90.915 *L 0 *D SDFFQXL

*CAP
1 *235:2 2.56958e-05
2 *235:3 2.56958e-05
3 *235:4 0.00017248
4 *235:5 0.00022176
5 *235:6 4.92801e-05
6 *235:7 0.000467276
7 *235:9 0.000467276

*RES
1 *235:10 *899:Q 1.4
2 *235:9 *235:10 1.4
3 *235:7 *235:9 2.23714
4 *235:6 *899:D 1.4
5 *235:5 *235:7 1.4
6 *235:5 *235:6 0.248577
7 *235:4 *235:5 0.870021
8 *235:3 *235:4 1.4
9 *235:2 *235:3 0.124283
10 *235:1 *235:2 1.4
11 *1141:A0 *235:1 1.4
*END

*D_NET *236 0.00136319

*CONN
*I *898:D I *C 84.245 75.835 *L 0.00181 *D SDFFQXL
*I *1107:A1 I *C 81.925 73.805 *L 0.00171 *D AOI22XL
*I *898:Q O *C 79.025 75.255 *L 0 *D SDFFQXL

*CAP
1 *236:1 2.34591e-05
2 *236:2 2.34591e-05
3 *236:3 0.000209095
4 *236:4 0.000209095
5 *236:5 7.03774e-05
6 *236:6 0.000187673
7 *236:7 0.000261369
8 *236:8 0.000117296
9 *236:9 0.000261369

*RES
1 *236:11 *898:Q 1.4
2 *236:9 *236:11 1.4
3 *236:8 *1107:A1 1.4
4 *236:7 *236:9 1.24289
5 *236:6 *236:8 0.62144
6 *236:6 *236:7 1.4
7 *236:5 *236:6 0.372864
8 *236:4 *236:5 1.4
9 *236:3 *236:4 0.99431
10 *236:2 *236:3 1.4
11 *236:1 *236:2 0.124288
12 *898:D *236:1 1.4
*END

*D_NET *237 0.0016851

*CONN
*I *1043:B0 I *C 78.155 94.395 *L 0.00265 *D AOI22X1
*I *897:Q O *C 81.055 94.685 *L 0 *D SDFFQXL
*I *897:D I *C 86.275 94.105 *L 0.00181 *D SDFFQXL

*CAP
1 *237:1 2.42286e-05
2 *237:2 2.42286e-05
3 *237:3 0.000257237
4 *237:4 0.000257237
5 *237:5 4.92801e-05
6 *237:6 4.92801e-05
7 *237:7 0.000462524
8 *237:9 0.000462524
9 *237:10 4.92801e-05
10 *237:11 4.92801e-05

*RES
1 *237:11 *897:D 1.4
2 *237:10 *237:11 0.248577
3 *237:9 *237:10 1.4
4 *237:7 *237:9 2.23709
5 *237:6 *897:Q 1.4
6 *237:6 *237:7 1.4
7 *237:5 *237:6 0.248577
8 *237:4 *237:5 1.4
9 *237:3 *237:4 1.24283
10 *237:2 *237:3 1.4
11 *237:1 *237:2 0.124289
12 *1043:B0 *237:1 1.4
*END

*D_NET *238 0.00215096

*CONN
*I *1134:A1 I *C 79.605 105.125 *L 0.00171 *D AOI22XL
*I *896:Q O *C 81.635 101.355 *L 0 *D SDFFQX1
*I *896:D I *C 86.855 101.935 *L 0.00183 *D SDFFQX1

*CAP
1 *238:1 8.81263e-05
2 *238:2 8.81263e-05
3 *238:3 0.000102783
4 *238:4 0.000102783
5 *238:5 0.000246401
6 *238:6 0.000246401
7 *238:7 7.70873e-05
8 *238:8 0.000539611
9 *238:9 2.46401e-05
10 *238:10 0.000462524
11 *238:11 2.46401e-05
12 *238:12 7.39202e-05
13 *238:14 7.39202e-05

*RES
1 *238:14 *896:D 1.4
2 *238:12 *238:14 0.372866
3 *238:11 *896:Q 1.4
4 *238:10 *238:12 1.4
5 *238:9 *238:11 0.124289
6 *238:8 *238:10 2.23709
7 *238:8 *238:9 1.4
8 *238:7 *238:8 0.372849
9 *238:6 *238:7 1.4
10 *238:5 *238:6 1.24289
11 *238:4 *238:5 1.4
12 *238:3 *238:4 0.497131
13 *238:2 *238:3 1.4
14 *238:1 *238:2 0.497155
15 *1134:A1 *238:1 1.4
*END

*D_NET *239 0.00157512

*CONN
*I *1140:A1 I *C 65.395 85.695 *L 0.00171 *D AOI22XL
*I *895:D I *C 65.395 88.885 *L 0.00183 *D SDFFQX1
*I *895:Q O *C 60.175 89.465 *L 0 *D SDFFQX1

*CAP
1 *239:1 0.000266514
2 *239:2 0.000314972
3 *239:3 4.84572e-05
4 *239:5 0.000472586
5 *239:6 0.000472586

*RES
1 *239:7 *895:Q 1.4
2 *239:6 *239:7 1.4
3 *239:5 *239:6 2.2372
4 *239:3 *239:5 1.4
5 *239:2 *895:D 1.4
6 *239:2 *239:3 0.248577
7 *239:1 *239:2 1.36718
8 *1140:A1 *239:1 1.4
*END

*D_NET *240 0.00162595

*CONN
*I *1351:B0 I *C 74.965 104.255 *L 0.00171 *D AO22XL
*I *894:Q O *C 73.515 101.355 *L 0 *D SDFFQX1
*I *894:D I *C 78.735 101.935 *L 0.00183 *D SDFFQX1

*CAP
1 *240:2 2.62548e-05
2 *240:3 2.62548e-05
3 *240:4 0.000121143
4 *240:5 0.000193829
5 *240:6 0.000105019
6 *240:7 7.26857e-05
7 *240:8 0.000105019
8 *240:9 0.000366728
9 *240:10 0.000121143
10 *240:11 0.000366728
11 *240:12 0.000121143

*RES
1 *240:13 *894:D 1.4
2 *240:12 *894:Q 1.4
3 *240:11 *240:13 1.4
4 *240:10 *240:12 0.621444
5 *240:9 *240:11 1.74003
6 *240:8 *240:10 1.4
7 *240:7 *240:9 1.4
8 *240:6 *240:8 0.497155
9 *240:5 *240:7 0.372866
10 *240:5 *240:6 1.4
11 *240:4 *240:5 0.621444
12 *240:3 *240:4 1.4
13 *240:2 *240:3 0.124289
14 *240:1 *240:2 1.4
15 *1351:B0 *240:1 1.4
*END

*D_NET *241 0.00201615

*CONN
*I *893:D I *C 56.985 88.885 *L 0.00181 *D SDFFQXL
*I *893:Q O *C 51.765 89.465 *L 0 *D SDFFQXL
*I *1087:A1 I *C 54.375 85.695 *L 0.00171 *D AOI22XL

*CAP
1 *241:1 7.26857e-05
2 *241:2 7.26857e-05
3 *241:3 0.000262548
4 *241:4 0.000262548
5 *241:5 0.000121143
6 *241:6 0.0003392
7 *241:7 0.000207712
8 *241:8 0.000218057
9 *241:9 0.000207712
10 *241:10 2.62548e-05
11 *241:11 9.96762e-05
12 *241:12 2.62548e-05
13 *241:13 9.96762e-05

*RES
1 *241:14 *1087:A1 1.4
2 *241:13 *893:Q 1.4
3 *241:12 *241:14 1.4
4 *241:11 *241:13 0.497155
5 *241:10 *241:12 0.124289
6 *241:9 *241:11 1.4
7 *241:8 *241:10 1.4
8 *241:7 *241:9 0.994301
9 *241:6 *241:8 1.1186
10 *241:6 *241:7 1.4
11 *241:5 *241:6 0.621444
12 *241:4 *241:5 1.4
13 *241:3 *241:4 1.24289
14 *241:2 *241:3 1.4
15 *241:1 *241:2 0.372866
16 *893:D *241:1 1.4
*END

*D_NET *242 0.00143448

*CONN
*I *1144:B1 I *C 10.005 106.575 *L 0.00171 *D AOI22XL
*I *892:D I *C 10.005 101.935 *L 0.00183 *D SDFFQX1
*I *892:Q O *C 4.785 101.355 *L 0 *D SDFFQX1

*CAP
1 *242:1 0.000308341
2 *242:2 0.000308341
3 *242:4 0.000366853
4 *242:5 0.000366853
5 *242:6 4.20444e-05
6 *242:7 4.20444e-05

*RES
1 *242:7 *892:Q 1.4
2 *242:6 *242:7 0.248565
3 *242:5 *242:6 1.4
4 *242:4 *242:5 2.2371
5 *242:2 *242:4 1.4
6 *242:2 *892:D 1.4
7 *242:1 *242:2 1.98856
8 *1144:B1 *242:1 1.4
*END

*D_NET *243 0.00157459

*CONN
*I *891:D I *C 9.715 91.495 *L 0.00183 *D SDFFQX1
*I *1060:A0 I *C 9.715 85.985 *L 0.00264 *D AOI221X1
*I *891:Q O *C 4.495 90.915 *L 0 *D SDFFQX1

*CAP
1 *243:1 2.10222e-05
2 *243:2 0.000399422
3 *243:3 0.000366853
4 *243:4 0.0003784
5 *243:5 0.000366853
6 *243:7 2.10222e-05
7 *243:8 2.10222e-05

*RES
1 *243:8 *891:Q 1.4
2 *243:7 *243:8 0.124283
3 *243:5 *243:7 1.4
4 *243:4 *1060:A0 1.4
5 *243:3 *243:5 2.2371
6 *243:2 *243:4 2.23709
7 *243:2 *243:3 1.4
8 *243:1 *243:2 0.124283
9 *891:D *243:1 1.4
*END

*D_NET *244 0.00190706

*CONN
*I *1183:B0 I *C 14.355 44.225 *L 0.00265 *D AOI22X1
*I *890:D I *C 9.715 47.125 *L 0.00183 *D SDFFQX1
*I *890:Q O *C 4.495 47.705 *L 0 *D SDFFQX1

*CAP
1 *244:2 0.000203652
2 *244:3 0.000203652
3 *244:4 0.000220941
4 *244:5 0.000220941
5 *244:6 0.000122191
6 *244:7 0.000488765
7 *244:8 2.00855e-05
8 *244:9 0.000366573
9 *244:10 2.00855e-05
10 *244:11 2.00855e-05
11 *244:13 2.00855e-05

*RES
1 *244:13 *890:Q 1.4
2 *244:11 *244:13 0.124283
3 *244:10 *890:D 1.4
4 *244:9 *244:11 1.4
5 *244:8 *244:10 0.124283
6 *244:7 *244:9 2.2371
7 *244:7 *244:8 1.4
8 *244:6 *244:7 0.745699
9 *244:5 *244:6 1.4
10 *244:4 *244:5 1.36712
11 *244:3 *244:4 1.4
12 *244:2 *244:3 1.24283
13 *244:1 *244:2 1.4
14 *1183:B0 *244:1 1.4
*END

*D_NET *245 0.00149114

*CONN
*I *1135:A0 I *C 11.455 68.005 *L 0.00264 *D AOI22X1
*I *889:D I *C 9.715 65.395 *L 0.00183 *D SDFFQX1
*I *889:Q O *C 4.495 64.815 *L 0 *D SDFFQX1

*CAP
1 *245:2 4.12795e-05
2 *245:3 4.12795e-05
3 *245:4 0.000204723
4 *245:5 0.000204723
5 *245:6 8.25589e-05
6 *245:7 0.000454074
7 *245:9 0.000371515
8 *245:11 4.54941e-05
9 *245:12 4.54941e-05

*RES
1 *245:12 *889:Q 1.4
2 *245:11 *245:12 0.248567
3 *245:9 *245:11 1.4
4 *245:8 *889:D 1.4
5 *245:7 *245:9 2.2371
6 *245:7 *245:8 1.4
7 *245:6 *245:7 0.497132
8 *245:5 *245:6 1.4
9 *245:4 *245:5 1.11855
10 *245:3 *245:4 1.4
11 *245:2 *245:3 0.248566
12 *245:1 *245:2 1.4
13 *1135:A0 *245:1 1.4
*END

*D_NET *246 0.00239972

*CONN
*I *918:SI I *C 56.695 57.565 *L 0.00169 *D SDFFQXL
*I *918:Q O *C 50.025 58.145 *L 0 *D SDFFQXL
*I *1101:B0 I *C 54.085 52.635 *L 0.00265 *D AOI22X1

*CAP
1 *246:1 4.82399e-05
2 *246:2 4.82399e-05
3 *246:3 0.000183791
4 *246:4 0.000183791
5 *246:5 4.82399e-05
6 *246:6 0.000458279
7 *246:7 0.000405711
8 *246:8 0.000410039
9 *246:9 0.000405711
10 *246:10 5.25118e-05
11 *246:11 5.13279e-05
12 *246:12 5.25118e-05
13 *246:13 5.13279e-05

*RES
1 *246:14 *1101:B0 1.4
2 *246:13 *918:Q 1.4
3 *246:12 *246:14 1.4
4 *246:11 *246:13 0.248565
5 *246:10 *246:12 0.248566
6 *246:9 *246:11 1.4
7 *246:8 *246:10 1.4
8 *246:7 *246:9 1.98852
9 *246:6 *246:8 2.11282
10 *246:6 *246:7 1.4
11 *246:5 *246:6 0.248567
12 *246:4 *246:5 1.4
13 *246:3 *246:4 0.86998
14 *246:2 *246:3 1.4
15 *246:1 *246:2 0.248567
16 *918:SI *246:1 1.4
*END

*D_NET *247 0.00214602

*CONN
*I *917:SI I *C 87.435 57.565 *L 0.00169 *D SDFFQXL
*I *917:Q O *C 94.105 58.145 *L 0 *D SDFFQXL
*I *1091:B1 I *C 90.625 52.925 *L 0.00171 *D AOI22XL

*CAP
1 *247:1 2.34591e-05
2 *247:2 2.34591e-05
3 *247:3 0.000313642
4 *247:4 0.000313642
5 *247:5 0.000422264
6 *247:6 7.03774e-05
7 *247:7 0.000351887
8 *247:8 0.000287505
9 *247:9 2.61369e-05
10 *247:10 0.000287505
11 *247:11 2.61369e-05

*RES
1 *247:13 *1091:B1 1.4
2 *247:12 *917:Q 1.4
3 *247:11 *247:13 1.4
4 *247:10 *247:12 1.4
5 *247:9 *247:11 0.124289
6 *247:8 *247:10 1.36718
7 *247:7 *247:9 1.4
8 *247:6 *247:8 1.4
9 *247:5 *247:7 1.86432
10 *247:5 *247:6 0.372864
11 *247:4 *247:5 1.4
12 *247:3 *247:4 1.49146
13 *247:2 *247:3 1.4
14 *247:1 *247:2 0.124288
15 *917:SI *247:1 1.4
*END

*D_NET *248 0.00168754

*CONN
*I *1072:B1 I *C 86.275 52.925 *L 0.00171 *D AOI22XL
*I *916:Q O *C 93.815 54.375 *L 0 *D SDFFQXL
*I *916:SI I *C 87.145 54.955 *L 0.00169 *D SDFFQXL

*CAP
1 *248:1 0.000117296
2 *248:2 0.000117296
3 *248:3 7.84106e-05
4 *248:4 0.000679558
5 *248:5 0.000601148
6 *248:6 4.69183e-05
7 *248:8 4.69183e-05

*RES
1 *248:8 *916:SI 1.4
2 *248:7 *916:Q 1.4
3 *248:6 *248:8 0.248576
4 *248:5 *248:7 1.4
5 *248:4 *248:6 1.4
6 *248:4 *248:5 2.85864
7 *248:3 *248:4 0.372866
8 *248:2 *248:3 1.4
9 *248:1 *248:2 0.62144
10 *1072:B1 *248:1 1.4
*END

*D_NET *249 0.00233438

*CONN
*I *1057:B1 I *C 66.845 59.885 *L 0.00177 *D AOI32XL
*I *915:SI I *C 68.585 54.955 *L 0.00169 *D SDFFQXL
*I *915:Q O *C 61.915 54.375 *L 0 *D SDFFQXL

*CAP
1 *249:2 0.000105024
2 *249:3 0.000105024
3 *249:4 0.000410039
4 *249:5 0.000458279
5 *249:6 5.25118e-05
6 *249:7 4.82399e-05
7 *249:8 5.25118e-05
8 *249:9 0.000551374
9 *249:11 0.000551374

*RES
1 *249:13 *915:Q 1.4
2 *249:11 *249:13 1.4
3 *249:10 *915:SI 1.4
4 *249:9 *249:11 2.60994
5 *249:8 *249:10 1.4
6 *249:7 *249:9 1.4
7 *249:6 *249:8 0.248566
8 *249:5 *249:7 0.248567
9 *249:5 *249:6 1.4
10 *249:4 *249:5 2.11282
11 *249:3 *249:4 1.4
12 *249:2 *249:3 0.497131
13 *249:1 *249:2 1.4
14 *1057:B1 *249:1 1.4
*END

*D_NET *250 0.00199739

*CONN
*I *1123:A I *C 86.565 83.665 *L 0.00157 *D NAND2XL
*I *914:SI I *C 83.375 83.665 *L 0.00169 *D SDFFQXL
*I *914:Q O *C 76.705 84.245 *L 0 *D SDFFQXL

*CAP
1 *250:1 2.46401e-05
2 *250:2 2.46401e-05
3 *250:3 0.000282654
4 *250:4 0.000876731
5 *250:5 2.46401e-05
6 *250:6 0.000594077
7 *250:7 2.46401e-05
8 *250:8 7.26857e-05
9 *250:10 7.26857e-05

*RES
1 *250:10 *914:Q 1.4
2 *250:8 *250:10 0.372866
3 *250:7 *914:SI 1.4
4 *250:6 *250:8 1.4
5 *250:5 *250:7 0.124289
6 *250:4 *250:6 2.85854
7 *250:4 *250:5 1.4
8 *250:3 *250:4 1.36711
9 *250:2 *250:3 1.4
10 *250:1 *250:2 0.124289
11 *1123:A *250:1 1.4
*END

*D_NET *251 0.00195299

*CONN
*I *913:SI I *C 86.565 70.615 *L 0.00169 *D SDFFQXL
*I *1107:B1 I *C 82.505 73.805 *L 0.00171 *D AOI22XL
*I *913:Q O *C 79.895 70.035 *L 0 *D SDFFQXL

*CAP
1 *251:1 2.34591e-05
2 *251:2 2.34591e-05
3 *251:3 0.000365916
4 *251:4 0.000365916
5 *251:5 4.69183e-05
6 *251:6 0.00028151
7 *251:7 0.000234591
8 *251:8 0.000235232
9 *251:10 0.000235232
10 *251:11 7.03774e-05
11 *251:12 7.03774e-05

*RES
1 *251:12 *913:Q 1.4
2 *251:11 *251:12 0.372864
3 *251:10 *251:11 1.4
4 *251:8 *251:10 1.1186
5 *251:7 *1107:B1 1.4
6 *251:6 *251:8 1.4
7 *251:6 *251:7 1.24288
8 *251:5 *251:6 0.248576
9 *251:4 *251:5 1.4
10 *251:3 *251:4 1.74004
11 *251:2 *251:3 1.4
12 *251:1 *251:2 0.124288
13 *913:SI *251:1 1.4
*END

*D_NET *252 0.00209439

*CONN
*I *1143:B0 I *C 78.735 97.005 *L 0.00171 *D AO22XL
*I *912:Q O *C 82.215 96.135 *L 0 *D SDFFQXL
*I *912:SI I *C 88.885 96.715 *L 0.00169 *D SDFFQXL

*CAP
1 *252:1 2.46401e-05
2 *252:2 2.46401e-05
3 *252:3 7.70873e-05
4 *252:4 7.70873e-05
5 *252:5 2.46401e-05
6 *252:6 2.46401e-05
7 *252:7 0.000231262
8 *252:8 0.000822265
9 *252:9 0.000591003
10 *252:10 7.39202e-05
11 *252:11 2.46401e-05
12 *252:12 7.39202e-05
13 *252:13 2.46401e-05

*RES
1 *252:13 *912:SI 1.4
2 *252:12 *912:Q 1.4
3 *252:11 *252:13 0.124289
4 *252:10 *252:12 0.372866
5 *252:9 *252:11 1.4
6 *252:8 *252:10 1.4
7 *252:8 *252:9 2.85851
8 *252:7 *252:8 1.11855
9 *252:6 *252:7 1.4
10 *252:5 *252:6 0.124289
11 *252:4 *252:5 1.4
12 *252:3 *252:4 0.372849
13 *252:2 *252:3 1.4
14 *252:1 *252:2 0.124289
15 *1143:B0 *252:1 1.4
*END

*D_NET *253 0.00194687

*CONN
*I *1134:B1 I *C 79.025 105.125 *L 0.00171 *D AOI22XL
*I *911:Q O *C 82.215 105.125 *L 0 *D SDFFQXL
*I *911:SI I *C 88.885 104.545 *L 0.00169 *D SDFFQXL

*CAP
1 *253:1 4.09329e-05
2 *253:2 4.09329e-05
3 *253:3 0.000275207
4 *253:4 0.000275207
5 *253:5 4.09329e-05
6 *253:6 4.09329e-05
7 *253:7 0.000575432
8 *253:9 0.000575432
9 *253:10 4.09329e-05
10 *253:11 4.09329e-05

*RES
1 *253:11 *911:SI 1.4
2 *253:10 *253:11 0.248578
3 *253:9 *253:10 1.4
4 *253:7 *253:9 2.85851
5 *253:6 *911:Q 1.4
6 *253:6 *253:7 1.4
7 *253:5 *253:6 0.248578
8 *253:4 *253:5 1.4
9 *253:3 *253:4 1.36711
10 *253:2 *253:3 1.4
11 *253:1 *253:2 0.248578
12 *1134:B1 *253:1 1.4
*END

*D_NET *254 0.00159538

*CONN
*I *910:SI I *C 66.265 83.665 *L 0.00169 *D SDFFQXL
*I *1140:B1 I *C 64.815 85.695 *L 0.00171 *D AOI22XL
*I *910:Q O *C 59.595 84.245 *L 0 *D SDFFQXL

*CAP
1 *254:2 0.000131274
2 *254:3 0.000131274
3 *254:4 2.42286e-05
4 *254:5 0.0001696
5 *254:6 0.000145371
6 *254:7 0.000472586
7 *254:9 0.000472586
8 *254:10 2.42286e-05
9 *254:11 2.42286e-05

*RES
1 *254:11 *910:Q 1.4
2 *254:10 *254:11 0.124289
3 *254:9 *254:10 1.4
4 *254:7 *254:9 2.2372
5 *254:6 *1140:B1 1.4
6 *254:5 *254:7 1.4
7 *254:5 *254:6 0.745732
8 *254:4 *254:5 0.124289
9 *254:3 *254:4 1.4
10 *254:2 *254:3 0.621444
11 *254:1 *254:2 1.4
12 *910:SI *254:1 1.4
*END

*D_NET *255 0.00161151

*CONN
*I *909:SI I *C 77.285 107.155 *L 0.00169 *D SDFFQXL
*I *1351:A0 I *C 73.515 104.545 *L 0.00158 *D AO22XL
*I *909:Q O *C 70.615 106.575 *L 0 *D SDFFQXL

*CAP
1 *255:1 2.04773e-05
2 *255:2 2.04773e-05
3 *255:3 0.00032811
4 *255:4 0.00032811
5 *255:5 6.14318e-05
6 *255:6 0.000204773
7 *255:7 0.000252392
8 *255:8 0.000143341
9 *255:9 0.000252392

*RES
1 *255:11 *909:Q 1.4
2 *255:9 *255:11 1.4
3 *255:8 *1351:A0 1.4
4 *255:7 *255:9 1.24283
5 *255:6 *255:8 0.869984
6 *255:6 *255:7 1.4
7 *255:5 *255:6 0.37285
8 *255:4 *255:5 1.4
9 *255:3 *255:4 1.61568
10 *255:2 *255:3 1.4
11 *255:1 *255:2 0.124283
12 *909:SI *255:1 1.4
*END

*D_NET *256 0.0026365

*CONN
*I *1087:B1 I *C 54.955 85.695 *L 0.00171 *D AOI22XL
*I *908:Q O *C 51.475 89.465 *L 0 *D SDFFQXL
*I *908:SI I *C 44.805 88.885 *L 0.00169 *D SDFFQXL

*CAP
1 *256:2 0.000210038
2 *256:3 0.000210038
3 *256:4 0.0003392
4 *256:5 0.0003392
5 *256:6 0.000101142
6 *256:7 0.000669335
7 *256:8 2.49191e-05
8 *256:9 0.000568193
9 *256:10 2.49191e-05
10 *256:11 7.47572e-05
11 *256:13 7.47572e-05

*RES
1 *256:13 *908:SI 1.4
2 *256:11 *256:13 0.372866
3 *256:10 *908:Q 1.4
4 *256:9 *256:11 1.4
5 *256:8 *256:10 0.124289
6 *256:7 *256:9 2.85851
7 *256:7 *256:8 1.4
8 *256:6 *256:7 0.49714
9 *256:5 *256:6 1.4
10 *256:4 *256:5 1.74004
11 *256:3 *256:4 1.4
12 *256:2 *256:3 0.99431
13 *256:1 *256:2 1.4
14 *1087:B1 *256:1 1.4
*END

*D_NET *257 0.00222421

*CONN
*I *1147:B1 I *C 15.225 101.355 *L 0.00171 *D AOI22XL
*I *907:SI I *C 11.455 96.715 *L 0.00169 *D SDFFQXL
*I *907:Q O *C 4.785 96.135 *L 0 *D SDFFQXL

*CAP
1 *257:1 0.000336355
2 *257:2 0.000336355
3 *257:3 0.000264949
4 *257:4 0.000733706
5 *257:6 0.000468757
6 *257:8 4.20444e-05
7 *257:9 4.20444e-05

*RES
1 *257:9 *907:Q 1.4
2 *257:8 *257:9 0.248565
3 *257:6 *257:8 1.4
4 *257:5 *907:SI 1.4
5 *257:4 *257:6 2.85851
6 *257:4 *257:5 1.4
7 *257:3 *257:4 1.61568
8 *257:2 *257:3 1.4
9 *257:1 *257:2 1.98852
10 *1147:B1 *257:1 1.4
*END

*D_NET *258 0.00223961

*CONN
*I *1060:B0 I *C 11.165 85.985 *L 0.00274 *D AOI221X1
*I *906:SI I *C 11.455 94.105 *L 0.00169 *D SDFFQXL
*I *906:Q O *C 4.785 94.685 *L 0 *D SDFFQXL

*CAP
1 *258:2 2.03807e-05
2 *258:3 2.03807e-05
3 *258:4 0.000588622
4 *258:5 0.000630666
5 *258:6 4.20444e-05
6 *258:8 0.000468757
7 *258:9 0.000468757

*RES
1 *258:10 *906:Q 1.4
2 *258:9 *258:10 1.4
3 *258:8 *258:9 2.85851
4 *258:6 *258:8 1.4
5 *258:5 *906:SI 1.4
6 *258:5 *258:6 0.248565
7 *258:4 *258:5 3.47991
8 *258:3 *258:4 1.4
9 *258:2 *258:3 0.124283
10 *258:1 *258:2 1.4
11 *1060:B0 *258:1 1.4
*END

*D_NET *259 0.0019048

*CONN
*I *905:SI I *C 11.455 57.565 *L 0.00169 *D SDFFQXL
*I *1182:B0 I *C 7.975 52.635 *L 0.00265 *D AOI22X1
*I *905:Q O *C 4.785 58.145 *L 0 *D SDFFQXL

*CAP
1 *259:1 2.2747e-05
2 *259:2 2.2747e-05
3 *259:3 0.000247677
4 *259:4 0.000247677
5 *259:5 2.2747e-05
6 *259:6 0.000409447
7 *259:7 0.000227037
8 *259:8 0.0003867
9 *259:9 0.000227037
10 *259:11 4.54941e-05
11 *259:12 4.54941e-05

*RES
1 *259:12 *905:Q 1.4
2 *259:11 *259:12 0.248567
3 *259:9 *259:11 1.4
4 *259:8 *1182:B0 1.4
5 *259:7 *259:9 1.36711
6 *259:6 *259:8 2.11282
7 *259:6 *259:7 1.4
8 *259:5 *259:6 0.124284
9 *259:4 *259:5 1.4
10 *259:3 *259:4 1.4914
11 *259:2 *259:3 1.4
12 *259:1 *259:2 0.124284
13 *905:SI *259:1 1.4
*END

*D_NET *260 0.00272722

*CONN
*I *1136:B0 I *C 12.325 80.765 *L 0.00265 *D AOI22X1
*I *904:SI I *C 11.455 70.615 *L 0.00169 *D SDFFQXL
*I *904:Q O *C 4.785 70.035 *L 0 *D SDFFQXL

*CAP
1 *260:1 0.000781485
2 *260:2 0.000781485
3 *260:3 6.19192e-05
4 *260:4 0.000536633
5 *260:6 0.000474714
6 *260:8 4.54941e-05
7 *260:9 4.54941e-05

*RES
1 *260:9 *904:Q 1.4
2 *260:8 *260:9 0.248567
3 *260:6 *260:8 1.4
4 *260:5 *904:SI 1.4
5 *260:4 *260:6 2.85851
6 *260:4 *260:5 1.4
7 *260:3 *260:4 0.372849
8 *260:2 *260:3 1.4
9 *260:1 *260:2 4.34992
10 *1136:B0 *260:1 1.4
*END

*D_NET *261 0.00566942

*CONN
*I *1261:A1 I *C 109.185 63.075 *L 0.00168 *D AO22XL
*I *1258:SI I *C 86.275 60.175 *L 0.00172 *D SDFFQX1
*I *1260:Q O *C 106.285 58.145 *L 0 *D SDFFQX1
*I *1099:B0 I *C 105.995 54.665 *L 0.00265 *D AOI22X1

*CAP
1 *261:1 2.48248e-05
2 *261:2 2.48248e-05
3 *261:3 6.61832e-05
4 *261:4 6.61832e-05
5 *261:5 0.000248248
6 *261:6 0.000248248
7 *261:7 0.000132366
8 *261:8 0.00193138
9 *261:9 0.000198598
10 *261:10 0.00179901
11 *261:11 0.000198598
12 *261:12 2.34591e-05
13 *261:13 2.20611e-05
14 *261:14 2.34591e-05
15 *261:15 2.20611e-05
16 *261:17 0.000297898
17 *261:19 0.000297898
18 *261:20 2.20611e-05
19 *261:21 2.20611e-05

*RES
1 *261:22 *1099:B0 1.4
2 *261:21 *261:22 1.4
3 *261:20 *261:21 0.124289
4 *261:19 *261:20 1.4
5 *261:17 *261:19 1.49146
6 *261:17 *1260:Q 1.4
7 *261:15 *261:17 1.4
8 *261:14 *1258:SI 1.4
9 *261:13 *261:15 0.124289
10 *261:12 *261:14 0.124288
11 *261:11 *261:13 1.4
12 *261:10 *261:12 1.4
13 *261:9 *261:11 0.99431
14 *261:8 *261:10 8.70021
15 *261:8 *261:9 1.4
16 *261:7 *261:8 0.745732
17 *261:6 *261:7 1.4
18 *261:5 *261:6 1.24289
19 *261:4 *261:5 1.4
20 *261:3 *261:4 0.372866
21 *261:2 *261:3 1.4
22 *261:1 *261:2 0.124289
23 *1261:A1 *261:1 1.4
*END

*D_NET *262 0.00216228

*CONN
*I *1296:A1 I *C 113.535 59.885 *L 0.00168 *D AO22XL
*I *1260:SI I *C 112.955 57.565 *L 0.00172 *D SDFFQX1
*I *1259:Q O *C 110.345 54.375 *L 0 *D SDFFQX1
*I *1346:C0 I *C 113.535 52.925 *L 0.00166 *D AOI222XL

*CAP
1 *262:2 0.000132366
2 *262:3 0.000132366
3 *262:4 0.000198598
4 *262:5 0.000471671
5 *262:6 8.82442e-05
6 *262:7 0.000273073
7 *262:8 8.82442e-05
8 *262:9 2.20611e-05
9 *262:11 0.000110305
10 *262:13 0.000124124
11 *262:14 8.82442e-05
12 *262:15 0.000124124
13 *262:17 0.000154427
14 *262:19 0.000154427

*RES
1 *262:20 *1346:C0 1.4
2 *262:19 *262:20 1.4
3 *262:17 *262:19 0.870021
4 *262:16 *1259:Q 1.4
5 *262:15 *262:17 1.4
6 *262:14 *262:16 1.4
7 *262:13 *262:15 0.621444
8 *262:11 *262:14 0.497155
9 *262:11 *262:13 1.4
10 *262:10 *1260:SI 1.4
11 *262:9 *262:11 0.124289
12 *262:8 *262:10 1.4
13 *262:7 *262:9 1.4
14 *262:6 *262:8 0.497155
15 *262:5 *262:7 1.36718
16 *262:5 *262:6 1.4
17 *262:4 *262:5 0.99431
18 *262:3 *262:4 1.4
19 *262:2 *262:3 0.745732
20 *262:1 *262:2 1.4
21 *1296:A1 *262:1 1.4
*END

*D_NET *263 0.00422241

*CONN
*I *1256:SI I *C 88.885 65.395 *L 0.00172 *D SDFFQX1
*I *1316:B I *C 84.535 57.565 *L 0.00167 *D NAND2XL
*I *1086:B0 I *C 81.925 52.635 *L 0.00265 *D AOI22X1
*I *1258:Q O *C 79.605 59.595 *L 0 *D SDFFQX1

*CAP
1 *263:2 2.61369e-05
2 *263:3 2.61369e-05
3 *263:4 0.000633396
4 *263:5 0.000633396
5 *263:6 0.00041819
6 *263:7 0.000627285
7 *263:9 0.000209095
8 *263:11 0.000469182
9 *263:12 7.03774e-05
10 *263:13 0.000398805
11 *263:14 0.000235232
12 *263:15 2.61369e-05
13 *263:16 0.000235232
14 *263:17 2.61369e-05
15 *263:18 9.38365e-05
16 *263:20 9.38365e-05

*RES
1 *263:20 *1258:Q 1.4
2 *263:19 *1086:B0 1.4
3 *263:18 *263:20 0.497152
4 *263:17 *263:19 1.4
5 *263:16 *263:18 1.4
6 *263:15 *263:17 0.124289
7 *263:14 *263:16 1.1186
8 *263:13 *263:15 1.4
9 *263:12 *263:14 1.4
10 *263:11 *263:13 2.1129
11 *263:11 *263:12 0.372864
12 *263:9 *263:11 1.4
13 *263:8 *1316:B 1.4
14 *263:7 *263:9 0.99431
15 *263:7 *263:8 1.4
16 *263:6 *263:7 1.98862
17 *263:5 *263:6 1.4
18 *263:4 *263:5 3.35578
19 *263:3 *263:4 1.4
20 *263:2 *263:3 0.124289
21 *263:1 *263:2 1.4
22 *1256:SI *263:1 1.4
*END

*D_NET *264 0.00463923

*CONN
*I *1259:SI I *C 117.015 54.955 *L 0.00172 *D SDFFQX1
*I *1295:A1 I *C 113.825 73.515 *L 0.00168 *D AO22XL
*I *1100:A0 I *C 111.215 73.225 *L 0.00264 *D AOI22X1
*I *1257:Q O *C 110.345 75.255 *L 0 *D SDFFQX1

*CAP
1 *264:1 0.00151431
2 *264:2 0.00151431
3 *264:3 0.000242672
4 *264:4 0.000441221
5 *264:5 7.44744e-05
6 *264:6 0.000198549
7 *264:7 7.44744e-05
8 *264:8 4.96496e-05
9 *264:10 0.000198598
10 *264:11 0.000148949
11 *264:13 6.61832e-05
12 *264:14 6.61832e-05
13 *264:15 2.48248e-05
14 *264:16 2.48248e-05

*RES
1 *264:16 *1257:Q 1.4
2 *264:15 *264:16 0.124289
3 *264:14 *264:15 1.4
4 *264:13 *264:14 0.372866
5 *264:11 *264:13 1.4
6 *264:10 *1100:A0 1.4
7 *264:10 *264:11 0.745732
8 *264:8 *264:10 0.248577
9 *264:7 *1295:A1 1.4
10 *264:6 *264:8 1.4
11 *264:5 *264:7 0.372866
12 *264:4 *264:6 1.1186
13 *264:4 *264:5 1.4
14 *264:3 *264:4 1.36718
15 *264:2 *264:3 1.4
16 *264:1 *264:2 7.58161
17 *1259:SI *264:1 1.4
*END

*D_NET *265 0.00899377

*CONN
*I *1146:B0 I *C 80.475 78.735 *L 0.00265 *D AOI22X1
*I *1247:SI I *C 48.865 68.005 *L 0.00172 *D SDFFQX1
*I *1256:Q O *C 82.215 64.815 *L 0 *D SDFFQX1
*I *1315:B I *C 84.535 62.785 *L 0.00167 *D NAND2XL

*CAP
1 *265:1 0.000869759
2 *265:2 0.000869759
3 *265:3 0.00286508
4 *265:4 2.61369e-05
5 *265:5 0.00283895
6 *265:6 0.00025805
7 *265:8 0.00025805
8 *265:10 0.000130684
9 *265:11 0.000313642
10 *265:12 0.000182958
11 *265:14 0.000164214
12 *265:16 0.000164214
13 *265:17 2.61369e-05
14 *265:18 2.61369e-05

*RES
1 *265:19 *1315:B 1.4
2 *265:18 *265:19 1.4
3 *265:17 *265:18 0.124289
4 *265:16 *265:17 1.4
5 *265:14 *265:16 0.870017
6 *265:13 *1256:Q 1.4
7 *265:12 *265:14 1.4
8 *265:11 *265:13 1.4
9 *265:11 *265:12 0.870021
10 *265:10 *265:11 0.621444
11 *265:8 *265:10 1.4
12 *265:7 *1247:SI 1.4
13 *265:6 *265:8 1.36717
14 *265:5 *265:7 1.4
15 *265:4 *265:6 1.4
16 *265:3 *265:5 13.5469
17 *265:3 *265:4 0.124289
18 *265:2 *265:3 1.4
19 *265:1 *265:2 4.59866
20 *1146:B0 *265:1 1.4
*END

*D_NET *266 0.00630963

*CONN
*I *1079:B0 I *C 112.665 99.615 *L 0.00265 *D AOI22X1
*I *1293:A1 I *C 113.245 94.395 *L 0.00168 *D AO22XL
*I *1257:SI I *C 117.015 75.835 *L 0.00172 *D SDFFQX1
*I *1255:Q O *C 124.845 94.685 *L 0 *D SDFFQX1

*CAP
1 *266:2 0.000109795
2 *266:3 0.000109795
3 *266:4 0.000459092
4 *266:5 0.000459092
5 *266:6 0.000153713
6 *266:7 0.000439181
7 *266:8 0.000285467
8 *266:9 4.59092e-05
9 *266:10 0.00148499
10 *266:11 4.59092e-05
11 *266:12 4.59092e-05
12 *266:13 0.00143908
13 *266:15 0.000592894
14 *266:17 0.000592894
15 *266:18 2.29546e-05
16 *266:19 2.29546e-05

*RES
1 *266:19 *1255:Q 1.4
2 *266:18 *266:19 0.124283
3 *266:17 *266:18 1.4
4 *266:15 *266:17 3.3558
5 *266:13 *1257:SI 1.4
6 *266:12 *266:15 1.4
7 *266:11 *1293:A1 1.4
8 *266:10 *266:13 7.70558
9 *266:10 *266:12 0.248565
10 *266:9 *266:11 0.248565
11 *266:8 *266:10 1.4
12 *266:7 *266:9 1.4
13 *266:7 *266:8 1.61575
14 *266:6 *266:7 0.870021
15 *266:5 *266:6 1.4
16 *266:4 *266:5 2.48565
17 *266:3 *266:4 1.4
18 *266:2 *266:3 0.621444
19 *266:1 *266:2 1.4
20 *1079:B0 *266:1 1.4
*END

*D_NET *267 0.00457714

*CONN
*I *1255:SI I *C 118.175 94.105 *L 0.00172 *D SDFFQX1
*I *1314:B I *C 105.125 96.715 *L 0.00167 *D NAND2XL
*I *1254:Q O *C 102.515 99.905 *L 0 *D SDFFQX1
*I *1350:B0 I *C 101.065 104.255 *L 0.00171 *D AO22XL

*CAP
1 *267:1 0.000206592
2 *267:2 0.000206592
3 *267:3 0.000988156
4 *267:4 0.00123577
5 *267:6 0.000247616
6 *267:8 9.85602e-05
7 *267:9 9.85602e-05
8 *267:10 2.56958e-05
9 *267:11 2.56958e-05
10 *267:12 0.00017248
11 *267:13 0.00017248
12 *267:14 2.56958e-05
13 *267:16 2.56958e-05
14 *267:17 0.000369601
15 *267:18 0.000369601
16 *267:19 0.000154175
17 *267:20 0.000154175

*RES
1 *267:21 *1350:B0 1.4
2 *267:20 *267:21 1.4
3 *267:19 *267:20 0.745697
4 *267:18 *267:19 1.4
5 *267:17 *267:18 1.86433
6 *267:16 *267:17 1.4
7 *267:14 *267:16 0.124283
8 *267:13 *1254:Q 1.4
9 *267:13 *267:14 1.4
10 *267:12 *267:13 0.870021
11 *267:11 *267:12 1.4
12 *267:10 *267:11 0.124283
13 *267:9 *267:10 1.4
14 *267:8 *267:9 0.497155
15 *267:6 *267:8 1.4
16 *267:5 *1314:B 1.4
17 *267:4 *267:6 1.24284
18 *267:4 *267:5 1.4
19 *267:3 *267:4 5.59299
20 *267:2 *267:3 1.4
21 *267:1 *267:2 1.11854
22 *1255:SI *267:1 1.4
*END

*D_NET *268 0.00290372

*CONN
*I *1251:SI I *C 58.145 91.495 *L 0.00172 *D SDFFQX1
*I *1304:B I *C 59.305 94.105 *L 0.00167 *D NAND2XL
*I *1252:Q O *C 62.785 99.905 *L 0 *D SDFFQX1
*I *1111:B0 I *C 63.075 101.645 *L 0.00265 *D AOI22X1

*CAP
1 *268:2 0.000210038
2 *268:3 0.000210038
3 *268:4 0.000218057
4 *268:5 0.000218057
5 *268:6 0.000288803
6 *268:7 0.000183783
7 *268:8 0.000105019
8 *268:9 0.000314972
9 *268:11 0.000314972
10 *268:13 2.62548e-05
11 *268:14 2.62548e-05
12 *268:15 0.0001696
13 *268:16 0.0001696
14 *268:17 5.25096e-05
15 *268:19 5.25096e-05
16 *268:20 0.000145371
17 *268:21 0.000145371
18 *268:22 2.62548e-05
19 *268:23 2.62548e-05

*RES
1 *268:24 *1111:B0 1.4
2 *268:23 *268:24 1.4
3 *268:22 *268:23 0.124289
4 *268:21 *268:22 1.4
5 *268:20 *268:21 0.745732
6 *268:19 *268:20 1.4
7 *268:17 *268:19 0.248577
8 *268:16 *1252:Q 1.4
9 *268:16 *268:17 1.4
10 *268:15 *268:16 0.870021
11 *268:14 *268:15 1.4
12 *268:13 *268:14 0.124289
13 *268:11 *268:13 1.4
14 *268:10 *1304:B 1.4
15 *268:9 *268:11 1.61575
16 *268:8 *268:10 1.4
17 *268:7 *268:9 1.4
18 *268:6 *268:8 0.497155
19 *268:6 *268:7 0.870021
20 *268:5 *268:6 1.4
21 *268:4 *268:5 1.1186
22 *268:3 *268:4 1.4
23 *268:2 *268:3 0.99431
24 *268:1 *268:2 1.4
25 *1251:SI *268:1 1.4
*END

*D_NET *269 0.00637913

*CONN
*I *1089:B0 I *C 57.855 101.645 *L 0.00265 *D AOI22X1
*I *1290:A1 I *C 56.115 96.425 *L 0.00168 *D AO22XL
*I *1251:Q O *C 51.475 90.915 *L 0 *D SDFFQX1
*I *1253:SI I *C 54.375 70.615 *L 0.00172 *D SDFFQX1

*CAP
1 *269:2 2.62548e-05
2 *269:3 2.62548e-05
3 *269:4 0.000387657
4 *269:5 0.000387657
5 *269:6 0.000131274
6 *269:7 0.000131274
7 *269:8 4.84572e-05
8 *269:9 0.0005088
9 *269:11 0.000460343
10 *269:12 0.000131274
11 *269:13 0.0004162
12 *269:14 0.00169312
13 *269:15 0.000284926
14 *269:16 0.00169312
15 *269:18 2.62559e-05
16 *269:20 2.62559e-05

*RES
1 *269:21 *1253:SI 1.4
2 *269:20 *269:21 1.4
3 *269:18 *269:20 0.124283
4 *269:17 *1251:Q 1.4
5 *269:16 *269:18 1.4
6 *269:15 *269:17 1.4
7 *269:14 *269:16 8.70008
8 *269:13 *269:15 1.36716
9 *269:13 *269:14 1.4
10 *269:12 *269:13 0.621444
11 *269:11 *269:12 1.4
12 *269:9 *269:11 2.36149
13 *269:9 *1290:A1 1.4
14 *269:8 *269:9 0.248577
15 *269:7 *269:8 1.4
16 *269:6 *269:7 0.621444
17 *269:5 *269:6 1.4
18 *269:4 *269:5 1.98862
19 *269:3 *269:4 1.4
20 *269:2 *269:3 0.124289
21 *269:1 *269:2 1.4
22 *1089:B0 *269:1 1.4
*END

*D_NET *270 0.00617956

*CONN
*I *1252:SI I *C 56.115 99.325 *L 0.00172 *D SDFFQX1
*I *1059:A0 I *C 32.045 96.425 *L 0.00264 *D AOI221X1
*I *1250:Q O *C 29.435 94.685 *L 0 *D SDFFQX1
*I *1317:A I *C 30.015 91.495 *L 0.00157 *D NAND2XL

*CAP
1 *270:1 2.42286e-05
2 *270:2 2.42286e-05
3 *270:3 0.00202196
4 *270:4 0.00202196
5 *270:5 0.00027411
6 *270:6 0.000423624
7 *270:7 4.94081e-05
8 *270:8 0.000149514
9 *270:9 4.94081e-05
10 *270:10 0.00024704
11 *270:12 0.000271744
12 *270:14 0.00027411
13 *270:15 2.4704e-05
14 *270:16 0.00027411
15 *270:18 2.4704e-05
16 *270:20 2.4704e-05

*RES
1 *270:21 *1317:A 1.4
2 *270:20 *270:21 1.4
3 *270:18 *270:20 0.124283
4 *270:17 *1250:Q 1.4
5 *270:16 *270:18 1.4
6 *270:15 *270:17 1.4
7 *270:14 *270:16 1.36718
8 *270:12 *270:15 0.124283
9 *270:12 *270:14 1.4
10 *270:11 *1059:A0 1.4
11 *270:10 *270:12 1.24283
12 *270:9 *270:11 1.4
13 *270:8 *270:10 1.4
14 *270:7 *270:9 0.248566
15 *270:6 *270:8 0.745732
16 *270:6 *270:7 1.4
17 *270:5 *270:6 1.36718
18 *270:4 *270:5 1.4
19 *270:3 *270:4 10.067
20 *270:2 *270:3 1.4
21 *270:1 *270:2 0.124289
22 *1252:SI *270:1 1.4
*END

*D_NET *271 0.00564991

*CONN
*I *1289:A1 I *C 43.645 73.515 *L 0.00168 *D AO22XL
*I *1186:B0 I *C 39.875 73.515 *L 0.00265 *D AOI22X1
*I *1249:Q O *C 39.295 70.035 *L 0 *D SDFFQX1
*I *1250:SI I *C 36.105 94.105 *L 0.00172 *D SDFFQX1

*CAP
1 *271:1 5.13279e-05
2 *271:2 5.13279e-05
3 *271:3 0.000316395
4 *271:4 0.000365072
5 *271:5 5.13279e-05
6 *271:6 4.86762e-05
7 *271:7 5.13279e-05
8 *271:8 0.000384959
9 *271:10 2.56639e-05
10 *271:11 0.000359295
11 *271:12 0.000267719
12 *271:14 0.000267719
13 *271:15 0.00170455
14 *271:16 0.00170455

*RES
1 *271:16 *1250:SI 1.4
2 *271:15 *271:16 8.45155
3 *271:14 *271:15 1.4
4 *271:12 *271:14 1.36711
5 *271:11 *1249:Q 1.4
6 *271:10 *271:12 1.4
7 *271:8 *271:11 1.73996
8 *271:8 *271:10 0.124283
9 *271:7 *1186:B0 1.4
10 *271:6 *271:8 1.4
11 *271:5 *271:7 0.248565
12 *271:4 *271:6 0.248565
13 *271:4 *271:5 1.4
14 *271:3 *271:4 1.61567
15 *271:2 *271:3 1.4
16 *271:1 *271:2 0.248565
17 *1289:A1 *271:1 1.4
*END

*D_NET *272 0.00356037

*CONN
*I *1249:SI I *C 45.965 70.615 *L 0.00172 *D SDFFQX1
*I *1311:B I *C 43.935 65.395 *L 0.00167 *D NAND2XL
*I *1247:Q O *C 42.195 68.585 *L 0 *D SDFFQX1
*I *1352:B0 I *C 31.175 67.715 *L 0.00171 *D AO22XL

*CAP
1 *272:2 0.000146029
2 *272:3 0.000146029
3 *272:4 0.000230975
4 *272:5 0.000230975
5 *272:6 2.43381e-05
6 *272:7 0.000170367
7 *272:8 0.000230975
8 *272:9 0.000292057
9 *272:10 0.000230975
10 *272:11 5.13279e-05
11 *272:12 0.000146029
12 *272:14 5.13279e-05
13 *272:15 2.56639e-05
14 *272:17 2.56639e-05
15 *272:18 0.000778819
16 *272:19 0.000778819

*RES
1 *272:20 *1352:B0 1.4
2 *272:19 *272:20 1.4
3 *272:18 *272:19 3.97705
4 *272:17 *272:18 1.4
5 *272:15 *272:17 0.124283
6 *272:14 *1247:Q 1.4
7 *272:12 *272:15 1.4
8 *272:11 *272:14 0.248565
9 *272:10 *1311:B 1.4
10 *272:9 *272:12 0.745696
11 *272:9 *272:11 1.4
12 *272:8 *272:10 1.11854
13 *272:7 *272:9 0.745696
14 *272:7 *272:8 1.4
15 *272:6 *272:7 0.124283
16 *272:5 *272:6 1.4
17 *272:4 *272:5 1.11854
18 *272:3 *272:4 1.4
19 *272:2 *272:3 0.745696
20 *272:1 *272:2 1.4
21 *1249:SI *272:1 1.4
*END

*D_NET *273 0.00493312

*CONN
*I *1093:B0 I *C 95.555 42.195 *L 0.00265 *D AOI22X1
*I *1232:Q O *C 94.105 52.925 *L 0 *D SDFFQX1
*I *1299:A1 I *C 96.715 54.665 *L 0.00163 *D AO22X1
*I *1244:SI I *C 84.535 54.955 *L 0.00172 *D SDFFQX1

*CAP
1 *273:1 6.49184e-05
2 *273:2 6.49184e-05
3 *273:3 2.55069e-05
4 *273:4 2.55069e-05
5 *273:5 0.000714102
6 *273:6 0.000714102
7 *273:7 5.10138e-05
8 *273:8 5.10138e-05
9 *273:9 0.000156025
10 *273:10 0.000249862
11 *273:11 0.000211132
12 *273:12 5.22737e-05
13 *273:13 0.000117296
14 *273:14 0.000182958
15 *273:15 5.22737e-05
16 *273:16 0.00091479
17 *273:17 0.000182958
18 *273:19 0.00091479
19 *273:20 4.69183e-05
20 *273:22 4.69183e-05
21 *273:23 4.69183e-05
22 *273:24 4.69183e-05

*RES
1 *273:24 *1244:SI 1.4
2 *273:23 *1299:A1 1.4
3 *273:22 *273:24 0.248576
4 *273:20 *273:23 0.248576
5 *273:19 *273:22 1.4
6 *273:18 *1232:Q 1.4
7 *273:17 *273:20 1.4
8 *273:16 *273:19 4.35011
9 *273:15 *273:18 1.4
10 *273:14 *273:17 0.870021
11 *273:13 *273:16 1.4
12 *273:12 *273:15 0.248578
13 *273:11 *273:14 1.4
14 *273:11 *273:13 0.62144
15 *273:10 *273:12 1.4
16 *273:10 *273:11 0.497152
17 *273:9 *273:10 0.87002
18 *273:8 *273:9 1.4
19 *273:7 *273:8 0.248578
20 *273:6 *273:7 1.4
21 *273:5 *273:6 4.10153
22 *273:4 *273:5 1.4
23 *273:3 *273:4 0.124289
24 *273:2 *273:3 1.4
25 *273:1 *273:2 0.372866
26 *1093:B0 *273:1 1.4
*END

*D_NET *274 0.00293232

*CONN
*I *1041:A0 I *C 99.905 44.225 *L 0.00156 *D AOI222XL
*I *1232:SI I *C 100.775 52.345 *L 0.00172 *D SDFFQX1
*I *1297:A1 I *C 101.065 54.665 *L 0.00168 *D AO22XL
*I *1231:Q O *C 97.585 58.145 *L 0 *D SDFFQX1

*CAP
1 *274:2 2.55069e-05
2 *274:3 2.55069e-05
3 *274:4 0.000584266
4 *274:5 0.000584266
5 *274:6 5.10138e-05
6 *274:7 5.10138e-05
7 *274:8 2.25493e-05
8 *274:9 0.000210222
9 *274:10 0.000469183
10 *274:12 0.00028151
11 *274:13 2.61369e-05
12 *274:14 0.000287505
13 *274:15 2.61369e-05
14 *274:16 0.000287505

*RES
1 *274:18 *1231:Q 1.4
2 *274:17 *1297:A1 1.4
3 *274:16 *274:18 1.4
4 *274:15 *274:17 1.4
5 *274:14 *274:16 1.36718
6 *274:13 *274:15 0.124289
7 *274:12 *274:14 1.4
8 *274:10 *274:13 1.4
9 *274:10 *274:12 1.49146
10 *274:9 *1232:SI 1.4
11 *274:9 *274:10 0.994305
12 *274:8 *274:9 0.124288
13 *274:7 *274:8 1.4
14 *274:6 *274:7 0.248578
15 *274:5 *274:6 1.4
16 *274:4 *274:5 3.3558
17 *274:3 *274:4 1.4
18 *274:2 *274:3 0.124289
19 *274:1 *274:2 1.4
20 *1041:A0 *274:1 1.4
*END

*D_NET *275 0.00287054

*CONN
*I *1225:SI I *C 68.295 62.785 *L 0.00172 *D SDFFQX1
*I *1080:A1 I *C 67.425 52.925 *L 0.00171 *D AOI22XL
*I *1307:B I *C 71.485 54.955 *L 0.00167 *D NAND2XL
*I *1230:Q O *C 70.035 52.925 *L 0 *D SDFFQX1

*CAP
1 *275:2 5.25118e-05
2 *275:3 5.25118e-05
3 *275:4 0.000771839
4 *275:5 0.000820079
5 *275:6 0.000183791
6 *275:7 4.82399e-05
7 *275:8 0.000183791
8 *275:9 2.62559e-05
9 *275:10 0.00016884
10 *275:11 2.62559e-05
11 *275:12 0.0001206
12 *275:13 4.82399e-05
13 *275:15 0.000157535
14 *275:16 2.62559e-05
15 *275:18 0.000157535
16 *275:19 2.62559e-05

*RES
1 *275:21 *1230:Q 1.4
2 *275:20 *1307:B 1.4
3 *275:19 *275:21 1.4
4 *275:18 *275:20 1.4
5 *275:16 *275:19 0.124283
6 *275:15 *275:18 0.745697
7 *275:14 *1080:A1 1.4
8 *275:13 *275:16 1.4
9 *275:12 *275:15 1.4
10 *275:11 *275:14 1.4
11 *275:10 *275:13 0.248567
12 *275:10 *275:12 0.621418
13 *275:9 *275:11 0.124283
14 *275:8 *275:10 1.4
15 *275:7 *275:9 1.4
16 *275:6 *275:8 0.86998
17 *275:5 *275:7 0.248567
18 *275:5 *275:6 1.4
19 *275:4 *275:5 3.97707
20 *275:3 *275:4 1.4
21 *275:2 *275:3 0.248566
22 *275:1 *275:2 1.4
23 *1225:SI *275:1 1.4
*END

*D_NET *276 0.00418967

*CONN
*I *1048:C1 I *C 106.865 83.955 *L 0.00176 *D AOI222XL
*I *1294:A1 I *C 105.995 75.545 *L 0.00168 *D AO22XL
*I *1229:Q O *C 107.445 80.475 *L 0 *D SDFFQX1
*I *1228:SI I *C 105.415 62.785 *L 0.00172 *D SDFFQX1

*CAP
1 *276:2 4.39181e-05
2 *276:3 4.39181e-05
3 *276:4 0.000137728
4 *276:5 0.000137728
5 *276:6 2.1959e-05
6 *276:7 2.1959e-05
7 *276:8 0.000137728
8 *276:9 0.000545723
9 *276:10 0.000109795
10 *276:11 0.00154994
11 *276:12 0.000109795
12 *276:14 0.00114194
13 *276:16 4.41221e-05
14 *276:18 4.41221e-05
15 *276:19 4.96496e-05
16 *276:20 4.96496e-05

*RES
1 *276:20 *1228:SI 1.4
2 *276:19 *276:20 0.248577
3 *276:18 *276:19 1.4
4 *276:16 *276:18 0.248578
5 *276:15 *1229:Q 1.4
6 *276:14 *276:16 1.4
7 *276:12 *276:15 1.4
8 *276:11 *276:14 5.71728
9 *276:11 *1294:A1 1.4
10 *276:10 *276:12 0.621444
11 *276:9 *276:11 2.11286
12 *276:9 *276:10 1.4
13 *276:8 *276:9 0.745696
14 *276:7 *276:8 1.4
15 *276:6 *276:7 0.124289
16 *276:5 *276:6 1.4
17 *276:4 *276:5 0.745696
18 *276:3 *276:4 1.4
19 *276:2 *276:3 0.248577
20 *276:1 *276:2 1.4
21 *1048:C1 *276:1 1.4
*END

*D_NET *277 0.00298067

*CONN
*I *1114:B0 I *C 103.965 68.295 *L 0.00265 *D AOI22X1
*I *1312:B I *C 104.545 65.395 *L 0.00167 *D NAND2XL
*I *1228:Q O *C 98.745 63.365 *L 0 *D SDFFQX1
*I *1231:SI I *C 104.255 57.565 *L 0.00172 *D SDFFQX1

*CAP
1 *277:2 2.61369e-05
2 *277:3 2.61369e-05
3 *277:4 0.000234591
4 *277:5 0.000398805
5 *277:6 2.4099e-05
6 *277:7 0.000164214
7 *277:8 2.4099e-05
8 *277:9 0.000520699
9 *277:11 2.4099e-05
10 *277:12 0.0004966
11 *277:14 0.000496496
12 *277:16 0.000496496
13 *277:18 2.4099e-05
14 *277:19 2.4099e-05

*RES
1 *277:20 *1231:SI 1.4
2 *277:19 *277:20 1.4
3 *277:18 *277:19 0.124289
4 *277:16 *277:18 1.4
5 *277:15 *1228:Q 1.4
6 *277:14 *277:16 2.48577
7 *277:12 *277:15 1.4
8 *277:11 *277:14 1.4
9 *277:10 *1312:B 1.4
10 *277:9 *277:12 2.36149
11 *277:9 *277:11 0.124289
12 *277:8 *277:10 1.4
13 *277:7 *277:9 1.4
14 *277:6 *277:8 0.124289
15 *277:5 *277:7 0.870017
16 *277:5 *277:6 1.4
17 *277:4 *277:5 1.24288
18 *277:3 *277:4 1.4
19 *277:2 *277:3 0.124289
20 *277:1 *277:2 1.4
21 *1114:B0 *277:1 1.4
*END

*D_NET *278 0.00271086

*CONN
*I *1067:A0 I *C 106.575 91.495 *L 0.00264 *D AOI22X1
*I *1291:A1 I *C 106.575 89.175 *L 0.00168 *D AO22XL
*I *1227:Q O *C 118.175 89.465 *L 0 *D SDFFQX1
*I *1241:SI I *C 119.625 91.495 *L 0.00172 *D SDFFQX1

*CAP
1 *278:1 0.000183637
2 *278:2 0.000183637
3 *278:3 2.1959e-05
4 *278:5 0.000878361
5 *278:6 0.000856402
6 *278:7 2.29546e-05
7 *278:8 2.29546e-05
8 *278:9 0.000109795
9 *278:11 0.000109795
10 *278:12 0.000160682
11 *278:13 0.000160682

*RES
1 *278:13 *1241:SI 1.4
2 *278:12 *278:13 0.869979
3 *278:11 *278:12 1.4
4 *278:9 *278:11 0.621444
5 *278:8 *1227:Q 1.4
6 *278:8 *278:9 1.4
7 *278:7 *278:8 0.124283
8 *278:6 *278:7 1.4
9 *278:5 *278:6 4.84726
10 *278:3 *278:5 0.124289
11 *278:2 *1291:A1 1.4
12 *278:2 *278:3 1.4
13 *278:1 *278:2 0.994261
14 *1067:A0 *278:1 1.4
*END

*D_NET *279 0.00458992

*CONN
*I *1227:SI I *C 111.505 88.885 *L 0.00172 *D SDFFQX1
*I *1226:Q O *C 109.475 101.355 *L 0 *D SDFFQX1
*I *1313:B I *C 105.125 94.105 *L 0.00167 *D NAND2XL
*I *1047:B0 I *C 106.173 109.692 *L 0.00163 *D AOI222XL

*CAP
1 *279:2 2.1959e-05
2 *279:3 2.1959e-05
3 *279:4 0.000344319
4 *279:5 0.000344319
5 *279:6 0.000131754
6 *279:7 0.000131754
7 *279:8 6.88638e-05
8 *279:9 0.000642729
9 *279:10 0.000711593
10 *279:11 0.000329385
11 *279:12 0.000137728
12 *279:14 0.000329385
13 *279:15 0.000241549
14 *279:17 0.000241549
15 *279:19 0.000438568
16 *279:20 0.000445534
17 *279:21 6.96506e-06

*RES
1 *279:21 *1047:B0 1.4
2 *279:20 *279:21 0.0471437
3 *279:19 *279:20 2.8286
4 *279:17 *279:19 1.4
5 *279:16 *1313:B 1.4
6 *279:15 *279:17 1.36718
7 *279:14 *279:16 1.4
8 *279:12 *279:15 1.4
9 *279:11 *279:14 1.86433
10 *279:10 *1226:Q 1.4
11 *279:10 *279:12 0.745696
12 *279:9 *279:11 1.4
13 *279:9 *279:10 3.10707
14 *279:8 *279:9 0.372848
15 *279:7 *279:8 1.4
16 *279:6 *279:7 0.745732
17 *279:5 *279:6 1.4
18 *279:4 *279:5 1.86424
19 *279:3 *279:4 1.4
20 *279:2 *279:3 0.124289
21 *279:1 *279:2 1.4
22 *1227:SI *279:1 1.4
*END

*D_NET *280 0.00388535

*CONN
*I *1239:SI I *C 72.935 70.615 *L 0.00172 *D SDFFQX1
*I *1288:A1 I *C 69.455 68.295 *L 0.00168 *D AO22XL
*I *1225:Q O *C 61.625 63.365 *L 0 *D SDFFQX1
*I *1073:A0 I *C 62.205 59.885 *L 0.00265 *D AOI21X1

*CAP
1 *280:1 4.82399e-05
2 *280:2 4.82399e-05
3 *280:3 0.000315071
4 *280:4 0.000315071
5 *280:5 0.00014472
6 *280:6 0.000530639
7 *280:8 0.000385919
8 *280:9 0.000682654
9 *280:10 0.000682654
10 *280:11 2.412e-05
11 *280:12 0.00031356
12 *280:13 2.62559e-05
13 *280:14 0.00028944
14 *280:15 2.62559e-05
15 *280:16 2.62559e-05
16 *280:18 2.62559e-05

*RES
1 *280:20 *1073:A0 1.4
2 *280:18 *280:20 1.4
3 *280:17 *1225:Q 1.4
4 *280:16 *280:18 0.124283
5 *280:15 *280:17 1.4
6 *280:14 *280:16 1.4
7 *280:13 *280:15 0.124283
8 *280:12 *280:14 1.4914
9 *280:12 *280:13 1.4
10 *280:11 *280:12 0.124284
11 *280:10 *280:11 1.4
12 *280:9 *280:10 3.23135
13 *280:8 *280:9 1.4
14 *280:6 *280:8 1.98854
15 *280:6 *1288:A1 1.4
16 *280:5 *280:6 0.745701
17 *280:4 *280:5 1.4
18 *280:3 *280:4 1.49139
19 *280:2 *280:3 1.4
20 *280:1 *280:2 0.248567
21 *1239:SI *280:1 1.4
*END

*D_NET *281 0.00538909

*CONN
*I *1113:B0 I *C 58.145 106.865 *L 0.00265 *D AOI22X1
*I *1319:A I *C 48.575 99.325 *L 0.00157 *D NAND2XL
*I *1222:SI I *C 39.005 99.325 *L 0.00172 *D SDFFQX1
*I *1224:Q O *C 50.605 94.685 *L 0 *D SDFFQX1

*CAP
1 *281:1 2.04773e-05
2 *281:2 2.04773e-05
3 *281:3 0.000638482
4 *281:4 0.000638482
5 *281:5 0.000624015
6 *281:6 0.000624015
7 *281:7 2.4704e-05
8 *281:8 0.000172928
9 *281:9 0.000398705
10 *281:10 0.000963457
11 *281:11 0.000398705
12 *281:13 0.000815233
13 *281:14 2.4704e-05
14 *281:17 2.4704e-05

*RES
1 *281:19 *1224:Q 1.4
2 *281:17 *281:19 1.4
3 *281:16 *1222:SI 1.4
4 *281:14 *281:17 0.124283
5 *281:13 *281:16 1.4
6 *281:12 *1319:A 1.4
7 *281:11 *281:14 1.4
8 *281:10 *281:13 4.10134
9 *281:10 *281:12 1.4
10 *281:9 *281:11 1.98862
11 *281:8 *281:10 0.745697
12 *281:8 *281:9 1.4
13 *281:7 *281:8 0.124283
14 *281:6 *281:7 1.4
15 *281:5 *281:6 3.35574
16 *281:4 *281:5 1.4
17 *281:3 *281:4 3.23139
18 *281:2 *281:3 1.4
19 *281:1 *281:2 0.124283
20 *1113:B0 *281:1 1.4
*END

*D_NET *282 0.00258635

*CONN
*I *1349:A0 I *C 42.775 112.375 *L 0.00264 *D AOI22X1
*I *1237:SI I *C 41.905 104.545 *L 0.00172 *D SDFFQX1
*I *1223:Q O *C 45.095 101.355 *L 0 *D SDFFQX1
*I *1320:A I *C 43.645 99.325 *L 0.00157 *D NAND2XL

*CAP
1 *282:2 4.4028e-05
2 *282:3 4.4028e-05
3 *282:4 0.00053412
4 *282:5 0.000805661
5 *282:6 2.2014e-05
6 *282:7 0.000271541
7 *282:8 2.2014e-05
8 *282:9 0.00012352
9 *282:11 0.00024704
10 *282:13 0.00012352
11 *282:14 0.000174433
12 *282:16 0.000174433

*RES
1 *282:16 *1320:A 1.4
2 *282:15 *1223:Q 1.4
3 *282:14 *282:16 0.870021
4 *282:13 *282:15 1.4
5 *282:11 *282:14 1.4
6 *282:11 *282:13 0.621414
7 *282:10 *1237:SI 1.4
8 *282:9 *282:11 0.621414
9 *282:8 *282:10 1.4
10 *282:7 *282:9 1.4
11 *282:6 *282:8 0.124289
12 *282:5 *282:7 1.36717
13 *282:5 *282:6 1.4
14 *282:4 *282:5 3.35565
15 *282:3 *282:4 1.4
16 *282:2 *282:3 0.248578
17 *282:1 *282:2 1.4
18 *1349:A0 *282:1 1.4
*END

*D_NET *283 0.00398851

*CONN
*I *1138:A0 I *C 31.755 104.545 *L 0.00158 *D AO22XL
*I *1223:SI I *C 38.425 101.935 *L 0.00172 *D SDFFQX1
*I *1222:Q O *C 32.335 99.905 *L 0 *D SDFFQX1
*I *1300:B I *C 39.875 94.105 *L 0.00167 *D NAND2XL

*CAP
1 *283:2 0.00011007
2 *283:3 0.00011007
3 *283:4 0.000221703
4 *283:5 0.000221703
5 *283:6 0.000172928
6 *283:7 0.000691713
7 *283:8 0.000642305
8 *283:9 0.000174433
9 *283:10 0.00012352
10 *283:12 0.000174433
11 *283:13 0.000672815
12 *283:16 0.000672815

*RES
1 *283:16 *1300:B 1.4
2 *283:13 *283:16 3.3558
3 *283:12 *1222:Q 1.4
4 *283:11 *1223:SI 1.4
5 *283:10 *283:13 1.4
6 *283:9 *283:12 0.870021
7 *283:8 *283:11 1.4
8 *283:8 *283:10 0.621414
9 *283:7 *283:9 1.4
10 *283:7 *283:8 2.60994
11 *283:6 *283:7 0.86998
12 *283:5 *283:6 1.4
13 *283:4 *283:5 1.1186
14 *283:3 *283:4 1.4
15 *283:2 *283:3 0.621444
16 *283:1 *283:2 1.4
17 *1138:A0 *283:1 1.4
*END

*D_NET *284 0.00407124

*CONN
*I *1283:A1 I *C 44.515 80.765 *L 0.00168 *D AO22XL
*I *1236:SI I *C 41.615 88.885 *L 0.00172 *D SDFFQX1
*I *1221:Q O *C 38.715 85.695 *L 0 *D SDFFQX1
*I *1181:A0 I *C 34.075 81.055 *L 0.00265 *D OAI22X1

*CAP
1 *284:2 0.000148224
2 *284:3 0.000148224
3 *284:4 0.000398705
4 *284:5 0.000398705
5 *284:6 9.88161e-05
6 *284:7 0.000345856
7 *284:8 0.000299029
8 *284:9 0.00024704
9 *284:10 0.000299029
10 *284:11 0.000423624
11 *284:13 2.49191e-05
12 *284:14 0.000398705
13 *284:16 0.000395265
14 *284:17 0.000395265
15 *284:18 2.49191e-05
16 *284:19 2.49191e-05

*RES
1 *284:19 *1181:A0 1.4
2 *284:18 *284:19 0.124289
3 *284:17 *284:18 1.4
4 *284:16 *284:17 1.98853
5 *284:14 *284:16 1.4
6 *284:13 *1221:Q 1.4
7 *284:11 *284:14 1.98862
8 *284:11 *284:13 0.124289
9 *284:10 *1236:SI 1.4
10 *284:9 *284:11 1.4
11 *284:8 *284:10 1.49146
12 *284:7 *284:9 1.24283
13 *284:7 *284:8 1.4
14 *284:6 *284:7 0.497132
15 *284:5 *284:6 1.4
16 *284:4 *284:5 1.98862
17 *284:3 *284:4 1.4
18 *284:2 *284:3 0.745697
19 *284:1 *284:2 1.4
20 *1283:A1 *284:1 1.4
*END

*D_NET *285 0.00619776

*CONN
*I *1233:SI I *C 36.685 54.955 *L 0.00172 *D SDFFQX1
*I *1177:A1 I *C 32.915 38.715 *L 0.00171 *D AOI22XL
*I *1220:Q O *C 40.165 28.275 *L 0 *D SDFFQX1
*I *1342:B I *C 37.85 34.415 *L 0.00164 *D MXI2XL

*CAP
1 *285:1 0.00140976
2 *285:2 0.00140976
3 *285:3 2.52156e-05
4 *285:4 0.000327803
5 *285:5 0.000376115
6 *285:6 0.000302588
7 *285:7 0.000902677
8 *285:9 0.000126078
9 *285:10 0.000526561
10 *285:12 0.000126078
11 *285:13 0.000327803
12 *285:14 4.32316e-06
13 *285:15 0.000327803
14 *285:16 4.75548e-06
15 *285:18 4.32316e-07

*RES
1 *285:18 *1342:B 1.4
2 *285:17 *1220:Q 1.4
3 *285:16 *285:18 0.00214291
4 *285:15 *285:17 1.4
5 *285:14 *285:16 0.0214291
6 *285:13 *285:15 1.61568
7 *285:12 *285:14 1.4
8 *285:10 *285:13 1.4
9 *285:9 *285:12 0.621414
10 *285:8 *1177:A1 1.4
11 *285:7 *285:10 2.61006
12 *285:7 *285:9 1.4
13 *285:6 *285:8 1.4
14 *285:5 *285:7 1.86433
15 *285:4 *285:6 1.49139
16 *285:4 *285:5 1.4
17 *285:3 *285:4 0.124283
18 *285:2 *285:3 1.4
19 *285:1 *285:2 6.9601
20 *1233:SI *285:1 1.4
*END

*D_NET *286 0.00476838

*CONN
*I *1354:B0 I *C 32.915 65.685 *L 0.00171 *D AO22XL
*I *1301:B I *C 40.165 65.395 *L 0.00167 *D NAND2XL
*I *1219:Q O *C 41.615 68.585 *L 0 *D SDFFQX1
*I *1235:SI I *C 50.315 75.835 *L 0.00172 *D SDFFQX1

*CAP
1 *286:2 0.000608452
2 *286:3 0.000608452
3 *286:4 0.00012832
4 *286:5 0.000102656
5 *286:6 2.56639e-05
6 *286:7 0.000121691
7 *286:9 0.000121691
8 *286:10 0.000153984
9 *286:11 0.000795582
10 *286:12 0.000641598
11 *286:14 0.000730143
12 *286:15 0.000730143

*RES
1 *286:16 *1235:SI 1.4
2 *286:15 *286:16 1.4
3 *286:14 *286:15 3.72848
4 *286:12 *286:14 1.4
5 *286:11 *1219:Q 1.4
6 *286:11 *286:12 3.10707
7 *286:10 *286:11 0.745696
8 *286:9 *286:10 1.4
9 *286:7 *286:9 0.621413
10 *286:6 *1301:B 1.4
11 *286:5 *286:7 1.4
12 *286:4 *286:6 0.124283
13 *286:4 *286:5 0.497131
14 *286:3 *286:4 1.4
15 *286:2 *286:3 3.10707
16 *286:1 *286:2 1.4
17 *1354:B0 *286:1 1.4
*END

*D_NET *287 0.00350042

*CONN
*I *1077:A0 I *C 122.235 49.735 *L 0.00264 *D AOI22X1
*I *1286:A1 I *C 121.945 57.855 *L 0.00168 *D AO22XL
*I *1246:SI I *C 125.425 54.955 *L 0.00172 *D SDFFQX1
*I *1245:Q O *C 125.715 63.365 *L 0 *D SDFFQX1

*CAP
1 *287:2 2.07968e-05
2 *287:3 2.07968e-05
3 *287:4 0.000656519
4 *287:5 0.000656519
5 *287:6 0.000198549
6 *287:8 0.000220611
7 *287:9 2.20611e-05
8 *287:10 0.000248248
9 *287:11 0.000471671
10 *287:12 0.000248248
11 *287:13 0.000471671
12 *287:14 6.61832e-05
13 *287:15 6.61832e-05
14 *287:16 6.61832e-05
15 *287:17 6.61832e-05

*RES
1 *287:19 *1245:Q 1.4
2 *287:18 *1246:SI 1.4
3 *287:17 *287:19 1.4
4 *287:16 *287:18 1.4
5 *287:15 *287:17 0.372866
6 *287:14 *287:16 0.372866
7 *287:13 *287:15 1.4
8 *287:12 *287:14 1.4
9 *287:11 *287:13 2.36149
10 *287:10 *287:12 1.24289
11 *287:9 *287:11 1.4
12 *287:8 *287:10 1.4
13 *287:8 *287:9 0.124289
14 *287:6 *287:8 1.1186
15 *287:5 *1286:A1 1.4
16 *287:5 *287:6 1.4
17 *287:4 *287:5 3.48004
18 *287:3 *287:4 1.4
19 *287:2 *287:3 0.124283
20 *287:1 *287:2 1.4
21 *1077:A0 *287:1 1.4
*END

*D_NET *288 0.00277259

*CONN
*I *1310:B I *C 74.385 54.955 *L 0.00167 *D NAND2XL
*I *1230:SI I *C 76.705 52.345 *L 0.00172 *D SDFFQX1
*I *1084:A0 I *C 75.255 44.515 *L 0.00264 *D AOI22X1
*I *1244:Q O *C 77.865 54.375 *L 0 *D SDFFQX1

*CAP
1 *288:1 2.412e-05
2 *288:2 2.412e-05
3 *288:3 0.00013128
4 *288:4 0.00013128
5 *288:5 9.64799e-05
6 *288:6 0.000825895
7 *288:7 7.87677e-05
8 *288:8 0.000729415
9 *288:9 0.000183791
10 *288:10 5.23677e-05
11 *288:11 0.000105024
12 *288:12 0.00014472
13 *288:13 5.23677e-05
14 *288:14 2.412e-05
15 *288:15 0.00014472
16 *288:17 2.412e-05

*RES
1 *288:17 *1244:Q 1.4
2 *288:16 *1084:A0 1.4
3 *288:15 *1230:SI 1.4
4 *288:14 *288:17 0.124284
5 *288:13 *288:16 1.4
6 *288:12 *288:15 0.745701
7 *288:11 *288:14 1.4
8 *288:10 *288:13 0.248577
9 *288:9 *288:12 1.4
10 *288:9 *288:11 0.497131
11 *288:8 *288:10 1.4
12 *288:7 *288:9 0.372849
13 *288:6 *288:8 4.10135
14 *288:6 *288:7 1.4
15 *288:5 *288:6 0.497134
16 *288:4 *288:5 1.4
17 *288:3 *288:4 0.621414
18 *288:2 *288:3 1.4
19 *288:1 *288:2 0.124284
20 *1310:B *288:1 1.4
*END

*D_NET *289 0.00335709

*CONN
*I *1063:A0 I *C 122.235 73.225 *L 0.00264 *D AOI22X1
*I *1285:A1 I *C 121.945 80.765 *L 0.00168 *D AO22XL
*I *1229:SI I *C 114.115 81.055 *L 0.00172 *D SDFFQX1
*I *1243:Q O *C 114.985 85.695 *L 0 *D SDFFQX1

*CAP
1 *289:1 0.000629548
2 *289:2 0.000629548
3 *289:3 2.1959e-05
4 *289:4 0.000505058
5 *289:6 0.000483099
6 *289:8 2.29546e-05
7 *289:9 0.000390228
8 *289:10 0.000367274
9 *289:11 0.000109795
10 *289:12 4.39181e-05
11 *289:13 0.000109795
12 *289:14 4.39181e-05

*RES
1 *289:16 *1243:Q 1.4
2 *289:15 *1229:SI 1.4
3 *289:14 *289:16 1.4
4 *289:13 *289:15 1.4
5 *289:12 *289:14 0.248577
6 *289:11 *289:13 0.621444
7 *289:10 *289:12 1.4
8 *289:9 *289:11 1.4
9 *289:9 *289:10 1.98852
10 *289:8 *289:9 0.124283
11 *289:6 *289:8 1.4
12 *289:5 *1285:A1 1.4
13 *289:4 *289:6 2.73435
14 *289:4 *289:5 1.4
15 *289:3 *289:4 0.124289
16 *289:2 *289:3 1.4
17 *289:1 *289:2 3.23146
18 *1063:A0 *289:1 1.4
*END

*D_NET *290 0.00644051

*CONN
*I *1042:A0 I *C 95.555 73.515 *L 0.00156 *D AOI222XL
*I *1309:B I *C 95.555 62.785 *L 0.00167 *D NAND2XL
*I *1245:SI I *C 119.045 62.785 *L 0.00172 *D SDFFQX1
*I *1242:Q O *C 97.585 59.595 *L 0 *D SDFFQX1

*CAP
1 *290:2 2.61369e-05
2 *290:3 2.61369e-05
3 *290:4 0.000774151
4 *290:5 0.000774151
5 *290:6 2.61369e-05
6 *290:7 2.61369e-05
7 *290:8 9.38365e-05
8 *290:9 9.38365e-05
9 *290:10 5.22737e-05
10 *290:12 0.00191126
11 *290:13 0.00185898
12 *290:14 0.00025805
13 *290:16 0.00025805
14 *290:18 0.000130684
15 *290:19 0.000130684

*RES
1 *290:20 *1242:Q 1.4
2 *290:19 *290:20 1.4
3 *290:18 *290:19 0.621444
4 *290:16 *290:18 1.4
5 *290:15 *1245:SI 1.4
6 *290:14 *290:16 1.36717
7 *290:13 *290:15 1.4
8 *290:12 *290:14 1.4
9 *290:12 *290:13 9.81881
10 *290:10 *290:12 0.248578
11 *290:9 *1309:B 1.4
12 *290:9 *290:10 1.4
13 *290:8 *290:9 0.497152
14 *290:7 *290:8 1.4
15 *290:6 *290:7 0.124289
16 *290:5 *290:6 1.4
17 *290:4 *290:5 4.10151
18 *290:3 *290:4 1.4
19 *290:2 *290:3 0.124289
20 *290:1 *290:2 1.4
21 *1042:A0 *290:1 1.4
*END

*D_NET *291 0.00331155

*CONN
*I *1243:SI I *C 121.655 86.275 *L 0.00172 *D SDFFQX1
*I *1071:A0 I *C 121.365 99.325 *L 0.00264 *D AOI22X1
*I *1284:A1 I *C 121.075 89.175 *L 0.00168 *D AO22XL
*I *1241:Q O *C 126.295 90.915 *L 0 *D SDFFQX1

*CAP
1 *291:2 4.39181e-05
2 *291:3 4.39181e-05
3 *291:4 0.000229546
4 *291:5 0.000229546
5 *291:6 0.000109795
6 *291:7 4.39181e-05
7 *291:8 8.78361e-05
8 *291:9 0.000160682
9 *291:10 0.000803412
10 *291:11 2.1959e-05
11 *291:12 0.000160682
12 *291:13 0.000803412
13 *291:15 0.000263508
14 *291:18 0.000263508
15 *291:19 2.29546e-05
16 *291:20 2.29546e-05

*RES
1 *291:20 *1241:Q 1.4
2 *291:19 *291:20 0.124283
3 *291:18 *291:19 1.4
4 *291:15 *291:18 1.49146
5 *291:14 *1284:A1 1.4
6 *291:13 *1071:A0 1.4
7 *291:12 *291:15 1.4
8 *291:11 *291:14 1.4
9 *291:10 *291:13 4.34989
10 *291:9 *291:12 0.869979
11 *291:8 *291:11 0.124289
12 *291:8 *291:10 1.4
13 *291:7 *291:9 1.4
14 *291:6 *291:8 0.372866
15 *291:6 *291:7 0.248577
16 *291:5 *291:6 1.4
17 *291:4 *291:5 1.24283
18 *291:3 *291:4 1.4
19 *291:2 *291:3 0.248577
20 *291:1 *291:2 1.4
21 *1243:SI *291:1 1.4
*END

*D_NET *292 0.002868

*CONN
*I *1106:A0 I *C 102.805 107.155 *L 0.00264 *D AOI22X1
*I *1240:Q O *C 97.585 105.125 *L 0 *D SDFFQX1
*I *1226:SI I *C 102.805 101.935 *L 0.00172 *D SDFFQX1
*I *1306:B I *C 95.265 101.935 *L 0.00167 *D NAND2XL

*CAP
1 *292:2 5.00376e-05
2 *292:3 5.00376e-05
3 *292:4 0.000231392
4 *292:5 0.000231392
5 *292:6 5.13916e-05
6 *292:7 0.000411132
7 *292:8 0.00017248
8 *292:9 0.000565307
9 *292:10 0.00017248
10 *292:11 8.81263e-05
11 *292:12 0.000205566
12 *292:13 0.000102783
13 *292:14 8.81263e-05
14 *292:15 4.92801e-05
15 *292:16 0.000102783
16 *292:18 4.92801e-05
17 *292:22 0.0001232
18 *292:23 0.0001232

*RES
1 *292:23 *1306:B 1.4
2 *292:22 *292:23 0.621444
3 *292:20 *292:22 1.4
4 *292:19 *1226:SI 1.4
5 *292:18 *292:20 1.4
6 *292:16 *292:19 1.4
7 *292:15 *292:18 0.248577
8 *292:14 *1240:Q 1.4
9 *292:13 *292:16 0.497131
10 *292:12 *292:15 1.4
11 *292:11 *292:14 0.497155
12 *292:10 *292:13 1.4
13 *292:9 *292:12 0.994263
14 *292:9 *292:11 1.4
15 *292:8 *292:10 0.870021
16 *292:7 *292:9 1.73996
17 *292:7 *292:8 1.4
18 *292:6 *292:7 0.248566
19 *292:5 *292:6 1.4
20 *292:4 *292:5 1.36718
21 *292:3 *292:4 1.4
22 *292:2 *292:3 0.248566
23 *292:1 *292:2 1.4
24 *1106:A0 *292:1 1.4
*END

*D_NET *293 0.00565005

*CONN
*I *1070:B0 I *C 76.995 78.735 *L 0.00265 *D AOI22X1
*I *1282:A1 I *C 76.705 73.515 *L 0.00168 *D AO22XL
*I *1239:Q O *C 79.605 70.035 *L 0 *D SDFFQX1
*I *1242:SI I *C 90.915 60.175 *L 0.00172 *D SDFFQX1

*CAP
1 *293:2 2.62548e-05
2 *293:3 2.62548e-05
3 *293:4 0.000434322
4 *293:5 0.000579042
5 *293:7 0.00014472
6 *293:8 0.000262023
7 *293:9 0.000262023
8 *293:10 0.000140755
9 *293:11 0.000140755
10 *293:12 0.00101934
11 *293:14 0.00101934
12 *293:15 0.00079761
13 *293:16 0.00079761

*RES
1 *293:16 *1242:SI 1.4
2 *293:15 *293:16 4.22579
3 *293:14 *293:15 1.4
4 *293:12 *293:14 4.84726
5 *293:11 *1239:Q 1.4
6 *293:11 *293:12 1.4
7 *293:10 *293:11 0.745728
8 *293:9 *293:10 1.4
9 *293:8 *293:9 1.24286
10 *293:7 *293:8 1.4
11 *293:5 *293:7 0.745701
12 *293:5 *1282:A1 1.4
13 *293:4 *293:5 2.23711
14 *293:3 *293:4 1.4
15 *293:2 *293:3 0.124289
16 *293:1 *293:2 1.4
17 *1070:B0 *293:1 1.4
*END

*D_NET *294 0.00641043

*CONN
*I *1062:A0 I *C 70.905 109.765 *L 0.00264 *D AOI22X1
*I *1240:SI I *C 90.915 104.545 *L 0.00172 *D SDFFQX1
*I *1238:Q O *C 72.645 101.355 *L 0 *D SDFFQX1
*I *1305:B I *C 68.005 99.325 *L 0.00167 *D NAND2XL

*CAP
1 *294:1 6.14318e-05
2 *294:2 6.14318e-05
3 *294:3 0.000201914
4 *294:4 0.000201914
5 *294:5 0.000307159
6 *294:6 0.000307159
7 *294:7 5.04785e-05
8 *294:8 0.00153
9 *294:9 0.00147953
10 *294:10 0.000119267
11 *294:12 0.000119267
12 *294:14 2.62548e-05
13 *294:15 2.62548e-05
14 *294:16 0.000290743
15 *294:17 0.000290743
16 *294:18 7.87643e-05
17 *294:19 0.000498841
18 *294:20 0.000145371
19 *294:21 0.000420076
20 *294:22 0.000145371
21 *294:23 2.42286e-05
22 *294:25 2.42286e-05

*RES
1 *294:25 *1305:B 1.4
2 *294:23 *294:25 0.124289
3 *294:22 *1238:Q 1.4
4 *294:21 *294:23 1.4
5 *294:20 *294:22 0.745732
6 *294:19 *294:21 1.98862
7 *294:19 *294:20 1.4
8 *294:18 *294:19 0.372866
9 *294:17 *294:18 1.4
10 *294:16 *294:17 1.49146
11 *294:15 *294:16 1.4
12 *294:14 *294:15 0.124289
13 *294:12 *294:14 1.4
14 *294:11 *1240:SI 1.4
15 *294:10 *294:12 0.621441
16 *294:9 *294:11 1.4
17 *294:8 *294:10 1.4
18 *294:8 *294:9 7.33269
19 *294:7 *294:8 0.248566
20 *294:6 *294:7 1.4
21 *294:5 *294:6 1.86425
22 *294:4 *294:5 1.4
23 *294:3 *294:4 0.994263
24 *294:2 *294:3 1.4
25 *294:1 *294:2 0.37285
26 *1062:A0 *294:1 1.4
*END

*D_NET *295 0.00462351

*CONN
*I *1094:A0 I *C 53.795 109.765 *L 0.00264 *D AOI22X1
*I *1303:B I *C 51.475 101.935 *L 0.00167 *D NAND2XL
*I *1237:Q O *C 48.575 105.125 *L 0 *D SDFFQX1
*I *1238:SI I *C 65.975 101.935 *L 0.00172 *D SDFFQX1

*CAP
1 *295:1 4.09545e-05
2 *295:2 4.09545e-05
3 *295:3 2.52392e-05
4 *295:4 2.52392e-05
5 *295:5 0.000286682
6 *295:6 0.000286682
7 *295:7 0.000168612
8 *295:8 0.000388752
9 *295:9 0.000261268
10 *295:10 0.00022014
11 *295:11 0.000261268
12 *295:14 0.00130886
13 *295:16 0.00130886

*RES
1 *295:17 *1238:SI 1.4
2 *295:16 *295:17 1.4
3 *295:14 *295:16 6.21442
4 *295:12 *1237:Q 1.4
5 *295:11 *295:14 1.4
6 *295:11 *1303:B 1.4
7 *295:10 *295:12 1.4
8 *295:9 *295:11 1.36716
9 *295:8 *295:10 1.24289
10 *295:8 *295:9 1.4
11 *295:7 *295:8 0.869995
12 *295:6 *295:7 1.4
13 *295:5 *295:6 1.73997
14 *295:4 *295:5 1.4
15 *295:3 *295:4 0.124283
16 *295:2 *295:3 1.4
17 *295:1 *295:2 0.248567
18 *1094:A0 *295:1 1.4
*END

*D_NET *296 0.003517

*CONN
*I *1302:B I *C 46.255 91.495 *L 0.00167 *D NAND2XL
*I *1224:SI I *C 43.935 94.105 *L 0.00172 *D SDFFQX1
*I *1236:Q O *C 34.945 89.465 *L 0 *D SDFFQX1
*I *1158:AN I *C 32.045 88.885 *L 0.00174 *D NOR2BXL

*CAP
1 *296:1 2.49191e-05
2 *296:2 2.49191e-05
3 *296:3 0.000172928
4 *296:4 0.000197632
5 *296:5 0.000199352
6 *296:6 2.4704e-05
7 *296:7 0.000199352
8 *296:8 0.000199352
9 *296:9 0.000790529
10 *296:10 0.000199352
11 *296:11 0.000790529
12 *296:13 7.47572e-05
13 *296:15 7.47572e-05
14 *296:16 0.00024704
15 *296:17 0.00024704
16 *296:18 2.49191e-05
17 *296:19 2.49191e-05

*RES
1 *296:19 *1158:AN 1.4
2 *296:18 *296:19 0.124289
3 *296:17 *296:18 1.4
4 *296:16 *296:17 1.24283
5 *296:15 *296:16 1.4
6 *296:13 *296:15 0.372866
7 *296:13 *1236:Q 1.4
8 *296:11 *296:13 1.4
9 *296:10 *1224:SI 1.4
10 *296:9 *296:11 3.97705
11 *296:8 *296:10 0.99431
12 *296:7 *296:9 1.4
13 *296:6 *296:8 1.4
14 *296:5 *296:7 0.99431
15 *296:4 *296:6 0.124283
16 *296:4 *296:5 1.4
17 *296:3 *296:4 0.86998
18 *296:2 *296:3 1.4
19 *296:1 *296:2 0.124289
20 *1302:B *296:1 1.4
*END

*D_NET *297 0.00409129

*CONN
*I *1221:SI I *C 45.385 86.275 *L 0.00172 *D SDFFQX1
*I *1235:Q O *C 43.645 75.255 *L 0 *D SDFFQX1
*I *1280:A1 I *C 47.995 73.515 *L 0.00168 *D AO22XL
*I *1186:A0 I *C 41.035 73.225 *L 0.00264 *D AOI22X1

*CAP
1 *297:2 9.88161e-05
2 *297:3 9.88161e-05
3 *297:4 0.000800762
4 *297:5 0.000800762
5 *297:6 4.86762e-05
6 *297:7 4.86762e-05
7 *297:8 0.000153984
8 *297:9 0.000282303
9 *297:11 0.000256639
10 *297:12 0.000365071
11 *297:13 0.00012832
12 *297:14 0.000365071
13 *297:15 0.000219043
14 *297:16 2.56639e-05
15 *297:17 0.000219043
16 *297:18 2.56639e-05
17 *297:19 7.69918e-05
18 *297:21 7.69918e-05

*RES
1 *297:21 *1186:A0 1.4
2 *297:19 *297:21 0.372848
3 *297:18 *1280:A1 1.4
4 *297:17 *297:19 1.4
5 *297:16 *297:18 0.124283
6 *297:15 *297:17 1.11854
7 *297:14 *297:16 1.4
8 *297:13 *297:15 1.4
9 *297:12 *297:14 1.86424
10 *297:11 *297:13 0.621413
11 *297:11 *297:12 1.4
12 *297:9 *297:11 0.621413
13 *297:9 *1235:Q 1.4
14 *297:8 *297:9 0.745696
15 *297:7 *297:8 1.4
16 *297:6 *297:7 0.248565
17 *297:5 *297:6 1.4
18 *297:4 *297:5 3.97721
19 *297:3 *297:4 1.4
20 *297:2 *297:3 0.497132
21 *297:1 *297:2 1.4
22 *1221:SI *297:1 1.4
*END

*D_NET *298 0.00266268

*CONN
*I *1176:A1 I *C 29.725 38.715 *L 0.00171 *D AOI22XL
*I *1356:A I *C 32.045 34.075 *L 0.0017 *D MXI2XL
*I *1220:SI I *C 33.495 28.855 *L 0.00172 *D SDFFQX1
*I *1234:Q O *C 31.755 28.275 *L 0 *D SDFFQX1

*CAP
1 *298:1 0.000325967
2 *298:2 0.000325967
3 *298:3 0.000100863
4 *298:4 0.000100863
5 *298:5 7.52231e-05
6 *298:6 0.000526561
7 *298:7 0.000100863
8 *298:8 0.000451338
9 *298:9 0.000100863
10 *298:10 7.56469e-05
11 *298:12 0.000226941
12 *298:14 0.000151294
13 *298:15 5.01487e-05
14 *298:17 5.01487e-05

*RES
1 *298:17 *1234:Q 1.4
2 *298:16 *1220:SI 1.4
3 *298:15 *298:17 0.248577
4 *298:14 *298:16 1.4
5 *298:12 *298:15 1.4
6 *298:12 *298:14 0.745697
7 *298:11 *1356:A 1.4
8 *298:10 *298:12 0.372849
9 *298:9 *298:11 1.4
10 *298:8 *298:10 1.4
11 *298:7 *298:9 0.497132
12 *298:6 *298:8 2.23719
13 *298:6 *298:7 1.4
14 *298:5 *298:6 0.372866
15 *298:4 *298:5 1.4
16 *298:3 *298:4 0.497132
17 *298:2 *298:3 1.4
18 *298:1 *298:2 1.61575
19 *1176:A1 *298:1 1.4
*END

*D_NET *299 0.00499755

*CONN
*I *1219:SI I *C 34.945 68.005 *L 0.00172 *D SDFFQX1
*I *1180:A0 I *C 32.915 60.175 *L 0.00264 *D AOI22X1
*I *1308:B I *C 42.485 57.565 *L 0.00167 *D NAND2XL
*I *1233:Q O *C 30.015 54.375 *L 0 *D SDFFQX1

*CAP
1 *299:2 9.73524e-05
2 *299:3 9.73524e-05
3 *299:4 0.000692926
4 *299:5 0.000872574
5 *299:6 7.30143e-05
6 *299:7 0.000179648
7 *299:8 7.30143e-05
8 *299:9 2.43381e-05
9 *299:11 0.000730143
10 *299:13 0.000705805
11 *299:14 0.000333631
12 *299:15 5.13279e-05
13 *299:16 0.000333631
14 *299:17 5.13279e-05
15 *299:18 0.000340733
16 *299:20 0.000340733

*RES
1 *299:21 *1233:Q 1.4
2 *299:20 *299:21 1.4
3 *299:18 *299:20 1.73996
4 *299:17 *1308:B 1.4
5 *299:16 *299:18 1.4
6 *299:15 *299:17 0.248565
7 *299:14 *299:16 1.61567
8 *299:13 *299:15 1.4
9 *299:11 *299:14 1.4
10 *299:11 *299:13 3.6042
11 *299:10 *1180:A0 1.4
12 *299:9 *299:11 0.124283
13 *299:8 *299:10 1.4
14 *299:7 *299:9 1.4
15 *299:6 *299:8 0.372848
16 *299:5 *299:7 0.869979
17 *299:5 *299:6 1.4
18 *299:4 *299:5 3.35563
19 *299:3 *299:4 1.4
20 *299:2 *299:3 0.497131
21 *299:1 *299:2 1.4
22 *1219:SI *299:1 1.4
*END

*D_NET *300 0.00190244

*CONN
*I *1262:A0 I *C 43.935 96.715 *L 0.00267 *D OAI211X1
*I *1281:A0 I *C 47.415 101.935 *L 0.00164 *D OAI21XL
*I *1338:Y O *C 45.5925 99.615 *L 0 *D CLKINVX1

*CAP
1 *300:1 9.96762e-05
2 *300:2 9.96762e-05
3 *300:3 2.4704e-05
4 *300:4 2.4704e-05
5 *300:5 0.000348867
6 *300:6 0.000348867
7 *300:7 0.00012352
8 *300:8 0.000271744
9 *300:9 0.000148224
10 *300:10 0.000199352
11 *300:12 0.000206227
12 *300:14 6.87422e-06

*RES
1 *300:14 *1338:Y 1.4
2 *300:12 *300:14 0.0342866
3 *300:11 *1281:A0 1.4
4 *300:10 *300:12 0.99431
5 *300:9 *300:11 1.4
6 *300:8 *300:10 1.4
7 *300:8 *300:9 0.745697
8 *300:7 *300:8 0.621414
9 *300:6 *300:7 1.4
10 *300:5 *300:6 1.74004
11 *300:4 *300:5 1.4
12 *300:3 *300:4 0.124283
13 *300:2 *300:3 1.4
14 *300:1 *300:2 0.497155
15 *1262:A0 *300:1 1.4
*END

*D_NET *301 0.0010058

*CONN
*I *1334:A I *C 47.705 34.075 *L 0.00173 *D OR2X1
*I *1336:Y O *C 44.805 31.175 *L 0 *D NAND3X1

*CAP
1 *301:1 0.000250744
2 *301:2 0.000250744
3 *301:3 0.000252156
4 *301:4 0.000252156

*RES
1 *301:5 *1336:Y 1.4
2 *301:4 *301:5 1.4
3 *301:3 *301:4 1.24283
4 *301:2 *301:3 1.4
5 *301:1 *301:2 1.24289
6 *1334:A *301:1 1.4
*END

*D_NET *302 0.00441424

*CONN
*I *1326:B I *C 46.835 54.955 *L 0.00171 *D NOR2XL
*I *1321:A1 I *C 44.225 54.375 *L 0.00163 *D AO21X1
*I *1331:AN I *C 44.225 47.415 *L 0.00178 *D NAND2BX1
*I *1335:Y O *C 45.095 33.495 *L 0 *D NAND4BBXL

*CAP
1 *302:1 2.56639e-05
2 *302:2 2.56639e-05
3 *302:3 0.000219043
4 *302:4 0.000219043
5 *302:5 7.69918e-05
6 *302:6 0.000683198
7 *302:8 0.00180978
8 *302:10 0.00120357
9 *302:11 7.56469e-05
10 *302:12 7.56469e-05

*RES
1 *302:13 *1335:Y 1.4
2 *302:12 *302:13 1.4
3 *302:11 *302:12 0.372849
4 *302:10 *302:11 1.4
5 *302:8 *302:10 5.96585
6 *302:8 *1331:AN 1.4
7 *302:6 *302:8 2.98288
8 *302:6 *1321:A1 1.4
9 *302:5 *302:6 0.372848
10 *302:4 *302:5 1.4
11 *302:3 *302:4 1.11854
12 *302:2 *302:3 1.4
13 *302:1 *302:2 0.124283
14 *1326:B *302:1 1.4
*END

*D_NET *303 0.00200794

*CONN
*I *1325:B I *C 32.045 52.345 *L 0.00167 *D NAND2XL
*I *1333:Y O *C 34.5725 52.635 *L 0 *D INVX1
*I *1327:B I *C 39.875 54.955 *L 0.00167 *D NAND2XL

*CAP
1 *303:1 5.04435e-05
2 *303:2 5.04435e-05
3 *303:3 0.000226941
4 *303:4 0.000226941
5 *303:5 7.61074e-05
6 *303:6 0.000288499
7 *303:7 0.000205311
8 *303:8 7.07971e-06
9 *303:9 0.000438086
10 *303:11 0.000438086

*RES
1 *303:12 *1327:B 1.4
2 *303:11 *303:12 1.4
3 *303:9 *303:11 2.23709
4 *303:8 *1333:Y 1.4
5 *303:7 *303:9 1.4
6 *303:6 *303:8 0.0342849
7 *303:6 *303:7 0.994261
8 *303:5 *303:6 0.372857
9 *303:4 *303:5 1.4
10 *303:3 *303:4 1.11855
11 *303:2 *303:3 1.4
12 *303:1 *303:2 0.248574
13 *1325:B *303:1 1.4
*END

*D_NET *304 0.00878357

*CONN
*I *1330:B I *C 46.835 57.565 *L 0.00167 *D NAND2XL
*I *1332:B I *C 49.735 54.955 *L 0.00171 *D NOR2XL
*I *1333:A I *C 34.945 52.635 *L 0.00273 *D INVX1
*I *1334:Y O *C 47.125 34.365 *L 0 *D OR2X1
*I *1329:B I *C 34.655 34.075 *L 0.00171 *D NOR2XL

*CAP
1 *304:2 2.43381e-05
2 *304:3 2.43381e-05
3 *304:4 0.000230975
4 *304:5 0.000230975
5 *304:6 0.000243381
6 *304:7 0.000219043
7 *304:8 2.43381e-05
8 *304:10 0.000179648
9 *304:12 0.000179648
10 *304:13 0.000997862
11 *304:14 0.000997862
12 *304:15 2.56639e-05
13 *304:16 0.00160623
14 *304:18 0.00158057
15 *304:19 0.00108427
16 *304:20 0.00105906
17 *304:21 2.52156e-05
18 *304:23 2.50744e-05
19 *304:25 2.50744e-05

*RES
1 *304:25 *1329:B 1.4
2 *304:23 *304:25 0.124289
3 *304:22 *1334:Y 1.4
4 *304:21 *304:23 1.4
5 *304:20 *304:22 1.4
6 *304:19 *304:21 0.124283
7 *304:19 *304:20 5.21988
8 *304:18 *304:19 1.4
9 *304:16 *304:18 7.83017
10 *304:16 *1333:A 1.4
11 *304:15 *304:16 0.124283
12 *304:14 *304:15 1.4
13 *304:13 *304:14 5.09559
14 *304:12 *304:13 1.4
15 *304:10 *304:12 0.869979
16 *304:9 *1332:B 1.4
17 *304:8 *304:10 1.4
18 *304:7 *304:9 1.4
19 *304:6 *304:8 0.124283
20 *304:6 *304:7 1.11854
21 *304:5 *304:6 1.4
22 *304:4 *304:5 1.11854
23 *304:3 *304:4 1.4
24 *304:2 *304:3 0.124283
25 *304:1 *304:2 1.4
26 *1330:B *304:1 1.4
*END

*D_NET *305 0.0198883

*CONN
*I *1273:A1 I *C 63.365 97.005 *L 0.00166 *D OAI21XL
*I *1274:A1 I *C 90.915 99.035 *L 0.00166 *D OAI21XL
*I *1276:A1 I *C 88.015 62.495 *L 0.00166 *D OAI21XL
*I *1278:A1 I *C 80.475 62.495 *L 0.00166 *D OAI21XL
*I *1271:A1 I *C 47.125 65.685 *L 0.00166 *D OAI21XL
*I *1328:Y O *C 79.3975 68.295 *L 0 *D CLKINVX1

*CAP
1 *305:3 0.000121143
2 *305:4 0.000121143
3 *305:5 0.00229002
4 *305:6 0.00229002
5 *305:7 0.00303911
6 *305:8 2.46401e-05
7 *305:9 0.00301447
8 *305:10 0.00017987
9 *305:11 7.84106e-05
10 *305:12 0.00017987
11 *305:13 0.000757969
12 *305:14 2.46401e-05
13 *305:15 2.34591e-05
14 *305:16 0.000757969
15 *305:17 2.46401e-05
16 *305:18 2.34591e-05
17 *305:19 2.34591e-05
18 *305:20 7.84106e-05
19 *305:23 2.34591e-05
20 *305:24 0.00028151
21 *305:26 0.00028151
22 *305:27 2.61369e-05
23 *305:28 0.00290656
24 *305:29 0.000211132
25 *305:30 0.00288043
26 *305:31 0.000218008
27 *305:33 6.87595e-06

*RES
1 *305:33 *1328:Y 1.4
2 *305:32 *1271:A1 1.4
3 *305:31 *305:33 0.0364293
4 *305:30 *305:32 1.4
5 *305:29 *305:31 1.11859
6 *305:28 *305:30 13.7954
7 *305:28 *305:29 1.4
8 *305:27 *305:28 0.124289
9 *305:26 *305:27 1.4
10 *305:24 *305:26 1.49146
11 *305:23 *1278:A1 1.4
12 *305:20 *305:24 1.4
13 *305:19 *305:23 0.124288
14 *305:18 *1276:A1 1.4
15 *305:17 *1274:A1 1.4
16 *305:16 *305:20 0.372866
17 *305:16 *305:19 1.4
18 *305:15 *305:18 0.124288
19 *305:14 *305:17 0.124289
20 *305:13 *305:16 3.23151
21 *305:13 *305:15 1.4
22 *305:12 *305:14 1.4
23 *305:11 *305:13 0.372866
24 *305:10 *305:12 0.86998
25 *305:9 *305:11 1.4
26 *305:8 *305:10 1.4
27 *305:7 *305:9 15.5361
28 *305:7 *305:8 0.124289
29 *305:6 *305:7 1.4
30 *305:5 *305:6 10.9372
31 *305:4 *305:5 1.4
32 *305:3 *305:4 0.621444
33 *305:2 *305:3 1.4
34 *305:1 *305:2 1.4
35 *1273:A1 *305:1 1.4
*END

*D_NET *306 0.0271253

*CONN
*I *1293:B0 I *C 114.405 93.815 *L 0.00171 *D AO22XL
*I *1295:B0 I *C 114.985 72.935 *L 0.00171 *D AO22XL
*I *1261:B0 I *C 110.345 62.495 *L 0.00171 *D AO22XL
*I *1296:B0 I *C 114.695 60.465 *L 0.00171 *D AO22XL
*I *1328:A I *C 79.025 68.295 *L 0.00273 *D CLKINVX1
*I *1290:B0 I *C 54.955 97.005 *L 0.00171 *D AO22XL
*I *1292:B0 I *C 52.925 72.935 *L 0.00171 *D AO22XL
*I *1332:Y O *C 50.025 55.245 *L 0 *D NOR2XL
*I *1289:B0 I *C 44.805 72.935 *L 0.00171 *D AO22XL

*CAP
1 *306:2 2.1959e-05
2 *306:3 2.1959e-05
3 *306:4 0.00168733
4 *306:5 0.00258102
5 *306:6 2.20611e-05
6 *306:7 0.000893692
7 *306:8 2.20611e-05
8 *306:9 2.20611e-05
9 *306:11 0.000330916
10 *306:13 0.000173774
11 *306:14 0.000308855
12 *306:15 0.000173774
13 *306:16 0.000496496
14 *306:17 2.20611e-05
15 *306:18 0.000496496
16 *306:20 2.20611e-05
17 *306:21 0.00273923
18 *306:23 0.00273923
19 *306:25 0.000328428
20 *306:26 0.000328428
21 *306:28 0.00217894
22 *306:29 0.00217894
23 *306:30 0.0001206
24 *306:31 0.0020572
25 *306:32 0.0019366
26 *306:33 0.000183791
27 *306:35 0.000431967
28 *306:36 7.23599e-05
29 *306:37 0.000248176
30 *306:38 7.23599e-05
31 *306:39 0.000102656
32 *306:41 0.00164249
33 *306:42 0.000438086
34 *306:43 0.00153984
35 *306:44 0.000438086
36 *306:46 2.56639e-05
37 *306:48 2.56639e-05

*RES
1 *306:48 *1289:B0 1.4
2 *306:47 *1332:Y 1.4
3 *306:46 *306:48 0.124283
4 *306:45 *306:47 1.4
5 *306:44 *306:46 1.4
6 *306:43 *306:45 1.4
7 *306:42 *306:44 2.23709
8 *306:41 *306:43 7.45696
9 *306:41 *306:42 1.4
10 *306:39 *306:41 0.497131
11 *306:38 *1292:B0 1.4
12 *306:37 *306:39 1.4
13 *306:36 *306:38 0.372851
14 *306:35 *306:37 1.24283
15 *306:35 *306:36 1.4
16 *306:33 *306:35 0.86998
17 *306:32 *1290:B0 1.4
18 *306:31 *306:33 1.4
19 *306:31 *306:32 9.94302
20 *306:30 *306:31 0.621418
21 *306:29 *306:30 1.4
22 *306:28 *306:29 10.3155
23 *306:26 *306:28 1.4
24 *306:25 *1328:A 1.4
25 *306:25 *306:26 1.74003
26 *306:23 *306:25 1.4
27 *306:22 *1296:B0 1.4
28 *306:21 *306:23 13.4232
29 *306:20 *306:22 1.4
30 *306:18 *306:21 1.4
31 *306:17 *306:20 0.124289
32 *306:16 *1261:B0 1.4
33 *306:16 *306:18 2.48577
34 *306:15 *306:17 1.4
35 *306:14 *306:16 1.4
36 *306:13 *306:15 0.870021
37 *306:11 *306:14 1.74004
38 *306:11 *306:13 1.4
39 *306:10 *1295:B0 1.4
40 *306:9 *306:11 0.124289
41 *306:8 *306:10 1.4
42 *306:7 *306:9 1.4
43 *306:6 *306:8 0.124289
44 *306:5 *306:7 4.47439
45 *306:5 *306:6 1.4
46 *306:4 *306:5 8.94846
47 *306:3 *306:4 1.4
48 *306:2 *306:3 0.124289
49 *306:1 *306:2 1.4
50 *1293:B0 *306:1 1.4
*END

*D_NET *307 0.0136642

*CONN
*I *1319:B I *C 47.995 99.325 *L 0.00167 *D NAND2XL
*I *1298:A1 I *C 47.415 96.715 *L 0.00278 *D OAI211X1
*I *1262:A1 I *C 43.355 96.715 *L 0.00278 *D OAI211X1
*I *1331:Y O *C 43.355 47.995 *L 0 *D NAND2BX1
*I *1320:B I *C 43.065 99.325 *L 0.00167 *D NAND2XL
*I *1342:S0 I *C 37.555 34.075 *L 0.00372 *D MXI2XL

*CAP
1 *307:2 2.4704e-05
2 *307:3 2.4704e-05
3 *307:4 0.000174433
4 *307:5 0.000174433
5 *307:6 2.4704e-05
6 *307:7 0.000370561
7 *307:8 4.98381e-05
8 *307:9 0.000345857
9 *307:10 4.98381e-05
10 *307:11 0.000199352
11 *307:13 0.000149514
12 *307:14 0.00430553
13 *307:15 2.4704e-05
14 *307:17 0.00433092
15 *307:18 2.4704e-05
16 *307:20 7.52231e-05
17 *307:21 2.49191e-05
18 *307:22 0.000504313
19 *307:23 2.49191e-05
20 *307:24 0.000504313
21 *307:26 0.00112835
22 *307:27 0.00112835

*RES
1 *307:29 *1342:S0 1.4
2 *307:28 *307:29 1.4
3 *307:27 *307:28 1.4
4 *307:26 *307:27 5.59298
5 *307:24 *307:26 1.4
6 *307:23 *1320:B 1.4
7 *307:22 *307:24 2.48566
8 *307:21 *307:23 0.124289
9 *307:20 *307:22 1.4
10 *307:18 *307:21 1.4
11 *307:17 *307:20 0.372866
12 *307:17 *1331:Y 1.4
13 *307:15 *307:18 0.124283
14 *307:14 *307:17 20.88
15 *307:14 *1262:A1 1.4
16 *307:13 *307:15 1.4
17 *307:11 *307:14 0.248578
18 *307:11 *307:13 0.745732
19 *307:10 *1298:A1 1.4
20 *307:9 *307:11 1.4
21 *307:8 *307:10 0.248578
22 *307:7 *307:9 1.73996
23 *307:7 *307:8 1.4
24 *307:6 *307:7 0.124283
25 *307:5 *307:6 1.4
26 *307:4 *307:5 0.870021
27 *307:3 *307:4 1.4
28 *307:2 *307:3 0.124283
29 *307:1 *307:2 1.4
30 *1319:B *307:1 1.4
*END

*D_NET *308 0.000700028

*CONN
*I *1318:A I *C 47.705 60.175 *L 0.00157 *D NAND2XL
*I *1330:Y O *C 46.835 58.145 *L 0 *D NAND2XL
*I *1322:B I *C 45.675 59.885 *L 0.00284 *D NAND2BX1

*CAP
1 *308:2 7.30143e-05
2 *308:3 7.30143e-05
3 *308:4 2.56639e-05
4 *308:5 0.000179648
5 *308:6 9.73524e-05
6 *308:7 0.000153984
7 *308:8 9.73524e-05

*RES
1 *308:10 *1322:B 1.4
2 *308:8 *308:10 1.4
3 *308:7 *1330:Y 1.4
4 *308:6 *308:8 0.497131
5 *308:5 *308:7 0.745696
6 *308:5 *308:6 1.4
7 *308:4 *308:5 0.124283
8 *308:3 *308:4 1.4
9 *308:2 *308:3 0.372848
10 *308:1 *308:2 1.4
11 *1318:A *308:1 1.4
*END

*D_NET *309 0.00070519

*CONN
*I *1356:S0 I *C 31.175 34.075 *L 0.00372 *D MXI2XL
*I *1329:Y O *C 34.365 34.365 *L 0 *D NOR2XL

*CAP
1 *309:1 5.01487e-05
2 *309:2 5.01487e-05
3 *309:3 0.000277372
4 *309:4 0.000277372
5 *309:5 2.50744e-05
6 *309:6 2.50744e-05

*RES
1 *309:6 *1329:Y 1.4
2 *309:5 *309:6 0.124289
3 *309:4 *309:5 1.4
4 *309:3 *309:4 1.36711
5 *309:2 *309:3 1.4
6 *309:1 *309:2 0.248577
7 *1356:S0 *309:1 1.4
*END

*D_NET *310 0.0207778

*CONN
*I *1284:B0 I *C 122.235 88.595 *L 0.00171 *D AO22XL
*I *1285:B0 I *C 123.105 81.345 *L 0.00171 *D AO22XL
*I *1286:B0 I *C 123.105 57.275 *L 0.00171 *D AO22XL
*I *1287:B0 I *C 119.045 57.275 *L 0.00171 *D AO22XL
*I *1324:Y O *C 77.6575 59.885 *L 0 *D CLKINVX1
*I *1282:B0 I *C 75.545 72.935 *L 0.00171 *D AO22XL
*I *1280:B0 I *C 49.155 72.935 *L 0.00171 *D AO22XL

*CAP
1 *310:2 6.58771e-05
2 *310:3 6.58771e-05
3 *310:4 0.000573865
4 *310:5 0.00261469
5 *310:7 0.00204082
6 *310:9 0.000308855
7 *310:10 0.000308855
8 *310:11 0.000173774
9 *310:12 0.000173774
10 *310:14 0.00353204
11 *310:15 0.00353204
12 *310:16 4.82399e-05
13 *310:17 0.00114071
14 *310:18 7.06965e-06
15 *310:19 0.0010854
16 *310:21 0.000183791
17 *310:22 0.00255294
18 *310:24 0.00236915

*RES
1 *310:26 *1280:B0 1.4
2 *310:24 *310:26 1.4
3 *310:23 *1282:B0 1.4
4 *310:22 *310:24 11.3097
5 *310:22 *310:23 1.4
6 *310:21 *310:22 0.86998
7 *310:19 *310:21 1.4
8 *310:18 *1324:Y 1.4
9 *310:17 *310:19 5.59276
10 *310:17 *310:18 0.0364279
11 *310:16 *310:17 0.248567
12 *310:15 *310:16 1.4
13 *310:14 *310:15 17.7733
14 *310:12 *310:14 1.4
15 *310:11 *1287:B0 1.4
16 *310:11 *310:12 0.870021
17 *310:10 *310:11 1.4
18 *310:9 *310:10 1.74004
19 *310:7 *310:9 1.4
20 *310:7 *1286:B0 1.4
21 *310:5 *310:7 10.3159
22 *310:5 *1285:B0 1.4
23 *310:4 *310:5 3.10707
24 *310:3 *310:4 1.4
25 *310:2 *310:3 0.372866
26 *310:1 *310:2 1.4
27 *1284:B0 *310:1 1.4
*END

*D_NET *311 0.0283253

*CONN
*I *1267:A1 I *C 91.205 102.225 *L 0.00166 *D OAI21XL
*I *1266:A1 I *C 66.845 97.005 *L 0.00166 *D OAI21XL
*I *1281:A1 I *C 47.705 102.225 *L 0.00166 *D OAI21XL
*I *1265:A1 I *C 42.485 91.785 *L 0.00166 *D OAI21XL
*I *1327:Y O *C 39.875 54.375 *L 0 *D NAND2XL
*I *1270:A1 I *C 78.155 57.275 *L 0.00166 *D OAI21XL
*I *1324:A I *C 77.285 59.885 *L 0.00273 *D CLKINVX1
*I *1264:A1 I *C 39.295 57.275 *L 0.00166 *D OAI21XL
*I *1269:A1 I *C 91.495 62.495 *L 0.00166 *D OAI21XL

*CAP
1 *311:1 2.46401e-05
2 *311:2 2.46401e-05
3 *311:3 0.00218053
4 *311:4 0.00218053
5 *311:5 2.42286e-05
6 *311:6 0.000460343
7 *311:7 0.00170878
8 *311:8 0.000436114
9 *311:9 0.00215345
10 *311:12 0.000444673
11 *311:14 0.000897086
12 *311:15 0.00389079
13 *311:17 0.00301937
14 *311:18 0.000219043
15 *311:19 2.56639e-05
16 *311:20 0.000219043
17 *311:21 0.00308646
18 *311:22 2.56639e-05
19 *311:23 0.00316523
20 *311:24 0.000282303
21 *311:25 7.87677e-05
22 *311:26 0.00021708
23 *311:27 4.86762e-05
24 *311:28 0.000256639
25 *311:30 0.00031356
26 *311:31 4.86762e-05
27 *311:34 9.64799e-05
28 *311:37 0.00128112
29 *311:39 0.00128112
30 *311:40 0.000117296
31 *311:41 0.000117296

*RES
1 *311:41 *1269:A1 1.4
2 *311:40 *311:41 0.62144
3 *311:39 *311:40 1.4
4 *311:37 *311:39 6.09013
5 *311:36 *1264:A1 1.4
6 *311:34 *311:37 1.4
7 *311:31 *311:36 1.4
8 *311:30 *1324:A 1.4
9 *311:30 *311:34 0.497134
10 *311:29 *1270:A1 1.4
11 *311:28 *1327:Y 1.4
12 *311:27 *311:31 0.248565
13 *311:26 *311:30 1.11855
14 *311:25 *311:29 1.4
15 *311:24 *311:28 1.24283
16 *311:24 *311:27 1.4
17 *311:23 *311:26 1.4
18 *311:23 *311:25 0.372849
19 *311:22 *311:24 0.124283
20 *311:21 *311:23 14.9139
21 *311:20 *311:22 1.4
22 *311:19 *311:21 1.4
23 *311:18 *311:20 1.11854
24 *311:17 *311:19 0.124283
25 *311:17 *311:18 1.4
26 *311:15 *311:17 14.6656
27 *311:15 *1265:A1 1.4
28 *311:14 *311:15 4.4744
29 *311:12 *311:14 1.4
30 *311:11 *1281:A1 1.4
31 *311:9 *311:12 2.23709
32 *311:9 *311:11 1.4
33 *311:8 *1266:A1 1.4
34 *311:7 *311:9 8.20297
35 *311:6 *311:8 2.2372
36 *311:6 *311:7 1.4
37 *311:5 *311:6 0.124289
38 *311:4 *311:5 1.4
39 *311:3 *311:4 10.44
40 *311:2 *311:3 1.4
41 *311:1 *311:2 0.124289
42 *1267:A1 *311:1 1.4
*END

*D_NET *312 0.0243011

*CONN
*I *1272:A1 I *C 101.935 97.005 *L 0.00166 *D OAI21XL
*I *1275:A1 I *C 101.065 65.685 *L 0.00166 *D OAI21XL
*I *1277:A1 I *C 74.385 60.465 *L 0.00166 *D OAI21XL
*I *1323:Y O *C 70.4075 59.885 *L 0 *D CLKINVX1
*I *1268:A1 I *C 38.425 97.005 *L 0.00166 *D OAI21XL
*I *1263:A1 I *C 36.395 65.685 *L 0.00166 *D OAI21XL

*CAP
1 *312:1 0.0025863
2 *312:2 0.0025863
3 *312:3 7.84106e-05
4 *312:4 0.00248461
5 *312:5 2.34591e-05
6 *312:6 0.0024062
7 *312:7 2.34591e-05
8 *312:8 0.000458279
9 *312:10 0.000458279
10 *312:12 0.000367583
11 *312:13 0.000367583
12 *312:14 0.000506519
13 *312:15 0.000458279
14 *312:16 5.53096e-05
15 *312:17 0.00279705
16 *312:18 7.06965e-06
17 *312:19 0.00279705
18 *312:21 2.56639e-05
19 *312:22 0.002698
20 *312:23 0.00267233
21 *312:24 0.000170367
22 *312:26 0.000170367
23 *312:27 5.13279e-05
24 *312:28 5.13279e-05

*RES
1 *312:28 *1263:A1 1.4
2 *312:27 *312:28 0.248565
3 *312:26 *312:27 1.4
4 *312:24 *312:26 0.869979
5 *312:23 *1268:A1 1.4
6 *312:22 *312:24 1.4
7 *312:22 *312:23 13.1744
8 *312:21 *312:22 0.124283
9 *312:19 *312:21 1.4
10 *312:18 *1323:Y 1.4
11 *312:17 *312:19 13.6711
12 *312:16 *312:18 0.0364279
13 *312:15 *312:17 1.4
14 *312:14 *312:16 0.248567
15 *312:14 *312:15 2.36139
16 *312:13 *312:14 1.4
17 *312:12 *312:13 1.73996
18 *312:10 *312:12 1.4
19 *312:10 *1277:A1 1.4
20 *312:8 *312:10 2.36139
21 *312:7 *1275:A1 1.4
22 *312:6 *312:8 1.4
23 *312:5 *312:7 0.124288
24 *312:4 *312:6 11.4345
25 *312:4 *312:5 1.4
26 *312:3 *312:4 0.372866
27 *312:2 *312:3 1.4
28 *312:1 *312:2 13.2989
29 *1272:A1 *312:1 1.4
*END

*D_NET *313 0.0237561

*CONN
*I *1291:B0 I *C 107.735 88.595 *L 0.00171 *D AO22XL
*I *1294:B0 I *C 107.155 76.125 *L 0.00171 *D AO22XL
*I *1297:B0 I *C 102.225 55.245 *L 0.00171 *D AO22XL
*I *1299:B0 I *C 97.875 54.665 *L 0.00165 *D AO22X1
*I *1323:A I *C 70.035 59.885 *L 0.00273 *D CLKINVX1
*I *1288:B0 I *C 68.295 67.715 *L 0.00171 *D AO22XL
*I *1326:Y O *C 47.125 55.245 *L 0 *D NOR2XL
*I *1283:B0 I *C 45.675 81.345 *L 0.00171 *D AO22XL

*CAP
1 *313:2 2.1959e-05
2 *313:3 2.1959e-05
3 *313:4 0.00100107
4 *313:5 0.00276363
5 *313:6 2.20611e-05
6 *313:7 0.00176256
7 *313:8 2.20611e-05
8 *313:9 0.000427668
9 *313:11 0.00081972
10 *313:13 2.34591e-05
11 *313:14 0.000392053
12 *313:15 2.34591e-05
13 *313:16 0.000445723
14 *313:18 0.000375346
15 *313:19 7.03774e-05
16 *313:20 0.00251253
17 *313:22 0.0025913
18 *313:23 2.412e-05
19 *313:24 0.000157535
20 *313:25 2.412e-05
21 *313:26 2.412e-05
22 *313:27 7.87677e-05
23 *313:29 2.412e-05
24 *313:30 0.000627119
25 *313:31 0.00196189
26 *313:32 0.000627119
27 *313:33 0.0020349
28 *313:35 0.000410623
29 *313:36 7.30143e-05
30 *313:37 0.000410623
31 *313:38 0.00191623
32 *313:40 0.00191623
33 *313:42 4.94081e-05
34 *313:44 4.94081e-05
35 *313:45 2.49191e-05
36 *313:46 2.49191e-05

*RES
1 *313:46 *1283:B0 1.4
2 *313:45 *313:46 0.124289
3 *313:44 *313:45 1.4
4 *313:42 *313:44 0.248566
5 *313:41 *1326:Y 1.4
6 *313:40 *313:42 1.4
7 *313:39 *313:41 1.4
8 *313:38 *313:40 9.32127
9 *313:37 *313:39 1.4
10 *313:36 *313:38 1.4
11 *313:35 *313:37 1.98852
12 *313:33 *313:36 0.372848
13 *313:33 *313:35 1.4
14 *313:32 *1288:B0 1.4
15 *313:31 *313:33 9.44549
16 *313:30 *313:32 3.23137
17 *313:29 *313:31 1.4
18 *313:27 *313:30 1.4
19 *313:26 *313:29 0.124284
20 *313:25 *1323:A 1.4
21 *313:24 *313:27 0.372849
22 *313:24 *313:26 1.4
23 *313:23 *313:25 0.124284
24 *313:22 *313:24 0.372849
25 *313:22 *313:23 1.4
26 *313:20 *313:22 11.9316
27 *313:19 *1299:B0 1.4
28 *313:18 *313:20 1.4
29 *313:16 *313:19 0.372864
30 *313:16 *313:18 1.98861
31 *313:15 *1297:B0 1.4
32 *313:14 *313:16 1.4
33 *313:13 *313:15 0.124288
34 *313:11 *313:14 1.86433
35 *313:11 *313:13 1.4
36 *313:10 *1294:B0 1.4
37 *313:9 *313:11 2.2372
38 *313:8 *313:10 1.4
39 *313:7 *313:9 1.4
40 *313:6 *313:8 0.124289
41 *313:5 *313:7 8.8245
42 *313:5 *313:6 1.4
43 *313:4 *313:5 5.3442
44 *313:3 *313:4 1.4
45 *313:2 *313:3 0.124289
46 *313:1 *313:2 1.4
47 *1291:B0 *313:1 1.4
*END

*D_NET *314 0.0117112

*CONN
*I *1340:S0 I *C 27.405 34.075 *L 0.00372 *D MXI2XL
*I *1317:B I *C 30.595 91.495 *L 0.00167 *D NAND2XL
*I *1325:Y O *C 32.045 52.925 *L 0 *D NAND2XL
*I *1279:A1 I *C 34.655 91.495 *L 0.00278 *D OAI211X1

*CAP
1 *314:1 2.50744e-05
2 *314:2 2.50744e-05
3 *314:3 0.000252156
4 *314:4 0.000252156
5 *314:5 0.00147939
6 *314:6 0.00147939
7 *314:7 2.52156e-05
8 *314:8 2.52156e-05
9 *314:9 0.000176994
10 *314:10 0.00355641
11 *314:11 0.000121691
12 *314:12 0.00340433
13 *314:13 0.000121691
14 *314:14 2.49191e-05
15 *314:17 0.000345857
16 *314:19 0.000345857
17 *314:20 2.49191e-05
18 *314:21 2.49191e-05

*RES
1 *314:21 *1279:A1 1.4
2 *314:20 *314:21 0.124289
3 *314:19 *314:20 1.4
4 *314:17 *314:19 1.73996
5 *314:16 *1325:Y 1.4
6 *314:14 *314:17 1.4
7 *314:13 *314:16 1.4
8 *314:12 *1317:B 1.4
9 *314:12 *314:14 0.124289
10 *314:11 *314:13 0.621413
11 *314:10 *314:12 16.5299
12 *314:10 *314:11 1.4
13 *314:9 *314:10 0.870005
14 *314:8 *314:9 1.4
15 *314:7 *314:8 0.124283
16 *314:6 *314:7 1.4
17 *314:5 *314:6 7.33302
18 *314:4 *314:5 1.4
19 *314:3 *314:4 1.24283
20 *314:2 *314:3 1.4
21 *314:1 *314:2 0.124289
22 *1340:S0 *314:1 1.4
*END

*D_NET *315 0.000697304

*CONN
*I *1262:C0 I *C 42.775 96.135 *L 0.00287 *D OAI211X1
*I *1320:Y O *C 43.065 99.905 *L 0 *D NAND2XL

*CAP
1 *315:1 0.000323948
2 *315:2 0.000323948
3 *315:3 2.4704e-05
4 *315:4 2.4704e-05

*RES
1 *315:5 *1320:Y 1.4
2 *315:4 *315:5 1.4
3 *315:3 *315:4 0.124283
4 *315:2 *315:3 1.4
5 *315:1 *315:2 1.61575
6 *1262:C0 *315:1 1.4
*END

*D_NET *316 0.000845528

*CONN
*I *1298:C0 I *C 46.835 96.135 *L 0.00287 *D OAI211X1
*I *1319:Y O *C 47.995 99.905 *L 0 *D NAND2XL

*CAP
1 *316:2 4.94081e-05
2 *316:3 4.94081e-05
3 *316:4 0.000323948
4 *316:5 0.000323948
5 *316:6 4.94081e-05
6 *316:7 4.94081e-05

*RES
1 *316:8 *1319:Y 1.4
2 *316:7 *316:8 1.4
3 *316:6 *316:7 0.248566
4 *316:5 *316:6 1.4
5 *316:4 *316:5 1.61575
6 *316:3 *316:4 1.4
7 *316:2 *316:3 0.248566
8 *316:1 *316:2 1.4
9 *1298:C0 *316:1 1.4
*END

*D_NET *317 0.0302255

*CONN
*I *1290:A0 I *C 56.405 96.715 *L 0.00158 *D AO22XL
*I *1304:A I *C 58.725 94.105 *L 0.00157 *D NAND2XL
*I *1292:A0 I *C 51.475 73.225 *L 0.00158 *D AO22XL
*I *1289:A0 I *C 43.355 73.225 *L 0.00158 *D AO22XL
*I *1311:A I *C 43.355 65.395 *L 0.00157 *D NAND2XL
*I *1315:A I *C 83.955 62.785 *L 0.00157 *D NAND2XL
*I *1316:A I *C 83.955 57.565 *L 0.00157 *D NAND2XL
*I *1322:Y O *C 45.675 59.305 *L 0 *D NAND2BX1
*I *1261:A0 I *C 108.895 62.785 *L 0.00158 *D AO22XL
*I *1296:A0 I *C 113.245 60.175 *L 0.00158 *D AO22XL
*I *1295:A0 I *C 113.535 73.225 *L 0.00158 *D AO22XL
*I *1293:A0 I *C 112.955 94.105 *L 0.00158 *D AO22XL
*I *1314:A I *C 105.705 96.715 *L 0.00157 *D NAND2XL

*CAP
1 *317:2 7.87643e-05
2 *317:3 7.87643e-05
3 *317:4 0.000218057
4 *317:5 0.000218057
5 *317:6 0.000472586
6 *317:7 0.000131274
7 *317:8 0.000341312
8 *317:10 0.00171844
9 *317:12 0.00171844
10 *317:13 0.000178997
11 *317:14 0.000836126
12 *317:15 2.56639e-05
13 *317:16 0.000657129
14 *317:17 2.56639e-05
15 *317:18 2.56639e-05
16 *317:20 0.00071859
17 *317:21 2.43381e-05
18 *317:22 0.000923902
19 *317:23 2.43381e-05
20 *317:24 2.43381e-05
21 *317:25 0.000230975
22 *317:27 2.43381e-05
23 *317:28 4.86762e-05
24 *317:31 0.00359067
25 *317:33 0.003542
26 *317:34 0.000307967
27 *317:35 0.000445723
28 *317:36 0.000307967
29 *317:37 2.34591e-05
30 *317:39 0.000422264
31 *317:40 0.000121691
32 *317:41 0.0021846
33 *317:43 0.000121691
34 *317:44 0.00238314
35 *317:46 0.000220611
36 *317:47 2.48248e-05
37 *317:49 2.20611e-05
38 *317:50 0.000248248
39 *317:51 2.48248e-05
40 *317:52 0.000868868
41 *317:53 0.000248248
42 *317:55 0.00255433
43 *317:56 0.000132366
44 *317:57 0.00191501
45 *317:58 0.000132366
46 *317:59 0.000132366
47 *317:60 0.000229546
48 *317:61 8.78361e-05
49 *317:62 0.000132366
50 *317:64 0.00046114
51 *317:65 8.78361e-05
52 *317:68 0.00046114
53 *317:71 2.29546e-05
54 *317:73 2.29546e-05

*RES
1 *317:73 *1314:A 1.4
2 *317:71 *317:73 0.124283
3 *317:69 *1293:A0 1.4
4 *317:68 *317:71 1.4
5 *317:66 *1295:A0 1.4
6 *317:65 *317:69 1.4
7 *317:64 *317:68 2.61006
8 *317:63 *1296:A0 1.4
9 *317:62 *317:66 1.4
10 *317:61 *317:65 0.497155
11 *317:60 *317:64 1.4
12 *317:59 *317:63 1.4
13 *317:58 *317:62 0.745732
14 *317:57 *317:61 1.4
15 *317:57 *317:60 1.24283
16 *317:56 *317:59 0.745732
17 *317:55 *317:58 1.4
18 *317:55 *317:57 8.94846
19 *317:53 *317:56 1.4
20 *317:52 *317:55 4.35011
21 *317:51 *1261:A0 1.4
22 *317:50 *317:53 1.24289
23 *317:49 *317:52 1.4
24 *317:47 *317:51 0.124289
25 *317:46 *317:50 1.4
26 *317:46 *317:49 0.124289
27 *317:45 *1322:Y 1.4
28 *317:44 *317:47 1.4
29 *317:44 *317:46 1.1186
30 *317:43 *317:45 1.4
31 *317:41 *317:44 10.6888
32 *317:40 *317:43 0.621413
33 *317:39 *1316:A 1.4
34 *317:37 *317:41 1.4
35 *317:36 *317:40 1.4
36 *317:35 *317:39 2.23719
37 *317:35 *1315:A 1.4
38 *317:35 *317:37 0.124288
39 *317:34 *317:36 1.49139
40 *317:33 *317:35 1.4
41 *317:31 *317:34 1.4
42 *317:31 *317:33 17.0269
43 *317:30 *1311:A 1.4
44 *317:28 *317:31 0.248565
45 *317:27 *317:30 1.4
46 *317:26 *1289:A0 1.4
47 *317:25 *317:28 1.4
48 *317:24 *317:27 0.124283
49 *317:23 *317:26 1.4
50 *317:22 *317:25 1.11854
51 *317:22 *317:24 1.4
52 *317:21 *317:23 0.124283
53 *317:20 *317:22 3.35563
54 *317:20 *317:21 1.4
55 *317:18 *317:20 0.124283
56 *317:17 *1292:A0 1.4
57 *317:16 *317:18 1.4
58 *317:15 *317:17 0.124283
59 *317:14 *317:16 3.35563
60 *317:14 *317:15 1.4
61 *317:13 *317:14 0.86998
62 *317:12 *317:13 1.4
63 *317:10 *317:12 8.82442
64 *317:9 *1304:A 1.4
65 *317:8 *317:10 1.4
66 *317:7 *317:9 1.4
67 *317:6 *317:8 1.61575
68 *317:6 *317:7 0.621444
69 *317:5 *317:6 1.4
70 *317:4 *317:5 1.1186
71 *317:3 *317:4 1.4
72 *317:2 *317:3 0.372866
73 *317:1 *317:2 1.4
74 *1290:A0 *317:1 1.4
*END

*D_NET *318 0.0282931

*CONN
*I *1291:A0 I *C 106.285 88.885 *L 0.00158 *D AO22XL
*I *1313:A I *C 105.705 94.105 *L 0.00157 *D NAND2XL
*I *1294:A0 I *C 105.705 75.835 *L 0.00158 *D AO22XL
*I *1312:A I *C 105.125 65.395 *L 0.00157 *D NAND2XL
*I *1297:A0 I *C 100.775 54.955 *L 0.00158 *D AO22XL
*I *1299:A0 I *C 96.135 54.955 *L 0.00162 *D AO22X1
*I *1307:A I *C 72.065 54.955 *L 0.00157 *D NAND2XL
*I *1288:A0 I *C 69.745 68.005 *L 0.00158 *D AO22XL
*I *1301:A I *C 40.745 65.395 *L 0.00157 *D NAND2XL
*I *1321:Y O *C 43.065 54.375 *L 0 *D AO21X1
*I *1283:A0 I *C 44.225 81.055 *L 0.00158 *D AO22XL
*I *1300:A I *C 40.455 94.105 *L 0.00157 *D NAND2XL

*CAP
1 *318:1 2.29546e-05
2 *318:2 2.29546e-05
3 *318:3 4.39181e-05
4 *318:4 6.58771e-05
5 *318:5 0.000436138
6 *318:6 2.1959e-05
7 *318:7 0.000436138
8 *318:8 0.0010259
9 *318:10 0.00196924
10 *318:11 2.20611e-05
11 *318:12 0.000943342
12 *318:13 2.20611e-05
13 *318:14 2.20611e-05
14 *318:16 0.00019483
15 *318:18 4.96496e-05
16 *318:19 0.000172769
17 *318:20 4.96496e-05
18 *318:21 0.00079761
19 *318:23 0.00079761
20 *318:24 0.000209095
21 *318:25 0.000627285
22 *318:27 0.00259011
23 *318:30 0.00225069
24 *318:33 7.87677e-05
25 *318:35 0.000868319
26 *318:36 0.000868319
27 *318:37 0.00013128
28 *318:38 0.00255943
29 *318:39 0.00021708
30 *318:40 0.00254984
31 *318:41 0.00021708
32 *318:42 0.00107789
33 *318:43 0.000121691
34 *318:45 0.000102656
35 *318:46 0.000975229
36 *318:48 2.43381e-05
37 *318:49 7.30143e-05
38 *318:51 2.43381e-05
39 *318:52 7.30143e-05
40 *318:53 0.00122628
41 *318:55 0.0013758
42 *318:57 0.000149514
43 *318:58 0.000197632
44 *318:59 0.00012352
45 *318:60 0.000197632
46 *318:61 0.00012352
47 *318:62 4.98381e-05
48 *318:63 0.00102168
49 *318:64 4.98381e-05
50 *318:65 0.00102168

*RES
1 *318:65 *1300:A 1.4
2 *318:64 *1283:A0 1.4
3 *318:63 *318:65 5.09584
4 *318:62 *318:64 0.248578
5 *318:61 *318:63 1.4
6 *318:60 *318:62 1.4
7 *318:59 *318:61 0.621414
8 *318:58 *318:60 0.994263
9 *318:57 *318:59 1.4
10 *318:55 *318:58 1.4
11 *318:55 *318:57 0.745732
12 *318:54 *1321:Y 1.4
13 *318:53 *318:55 5.96561
14 *318:52 *318:54 1.4
15 *318:51 *318:53 1.4
16 *318:49 *318:52 0.372848
17 *318:48 *318:51 0.124283
18 *318:47 *1301:A 1.4
19 *318:46 *318:49 1.4
20 *318:45 *318:48 1.4
21 *318:43 *318:47 1.4
22 *318:42 *318:46 4.72274
23 *318:42 *318:45 0.497131
24 *318:41 *1288:A0 1.4
25 *318:40 *318:43 0.621413
26 *318:40 *318:42 1.4
27 *318:39 *318:41 1.11855
28 *318:38 *318:40 11.8069
29 *318:38 *318:39 1.4
30 *318:37 *318:38 0.621414
31 *318:36 *318:37 1.4
32 *318:35 *318:36 4.47421
33 *318:33 *318:35 1.4
34 *318:32 *1307:A 1.4
35 *318:30 *318:33 0.372849
36 *318:30 *318:32 1.4
37 *318:29 *1299:A0 1.4
38 *318:27 *318:30 10.3158
39 *318:27 *318:29 1.4
40 *318:26 *1297:A0 1.4
41 *318:25 *318:27 1.98862
42 *318:25 *318:26 1.4
43 *318:24 *318:25 0.99431
44 *318:23 *318:24 1.4
45 *318:21 *318:23 4.22579
46 *318:20 *1312:A 1.4
47 *318:19 *318:21 1.4
48 *318:18 *318:20 0.248577
49 *318:16 *318:19 0.870021
50 *318:16 *318:18 1.4
51 *318:15 *1294:A0 1.4
52 *318:14 *318:16 0.124289
53 *318:13 *318:15 1.4
54 *318:12 *318:14 1.4
55 *318:11 *318:13 0.124289
56 *318:10 *318:12 4.72297
57 *318:10 *318:11 1.4
58 *318:8 *318:10 5.46849
59 *318:7 *1313:A 1.4
60 *318:6 *318:8 1.4
61 *318:5 *318:7 2.36137
62 *318:4 *318:6 0.124289
63 *318:4 *318:5 1.4
64 *318:3 *318:4 0.248577
65 *318:2 *318:3 1.4
66 *318:1 *318:2 0.124283
67 *1291:A0 *318:1 1.4
*END

*D_NET *319 0.000592897

*CONN
*I *1279:C0 I *C 34.075 90.915 *L 0.00287 *D OAI211X1
*I *1317:Y O *C 30.595 90.915 *L 0 *D NAND2XL

*CAP
1 *319:2 0.000296448
2 *319:3 0.000296448

*RES
1 *319:4 *1317:Y 1.4
2 *319:3 *319:4 1.4
3 *319:2 *319:3 1.49139
4 *319:1 *319:2 1.4
5 *1279:C0 *319:1 1.4
*END

*D_NET *320 0.0403014

*CONN
*I *1284:A0 I *C 120.785 88.885 *L 0.00158 *D AO22XL
*I *1285:A0 I *C 121.655 81.055 *L 0.00158 *D AO22XL
*I *1286:A0 I *C 121.655 57.565 *L 0.00158 *D AO22XL
*I *1287:A0 I *C 117.595 57.565 *L 0.00158 *D AO22XL
*I *1309:A I *C 94.975 62.785 *L 0.00157 *D NAND2XL
*I *1282:A0 I *C 76.995 73.225 *L 0.00158 *D AO22XL
*I *1310:A I *C 74.965 54.955 *L 0.00157 *D NAND2XL
*I *1280:A0 I *C 47.705 73.225 *L 0.00158 *D AO22XL
*I *1302:A I *C 46.835 91.495 *L 0.00157 *D NAND2XL
*I *1318:Y O *C 48.285 59.595 *L 0 *D NAND2XL
*I *1308:A I *C 43.065 57.565 *L 0.00157 *D NAND2XL
*I *1305:A I *C 68.585 99.325 *L 0.00157 *D NAND2XL
*I *1303:A I *C 52.055 101.935 *L 0.00157 *D NAND2XL
*I *1306:A I *C 94.685 101.935 *L 0.00157 *D NAND2XL

*CAP
1 *320:2 6.58771e-05
2 *320:3 6.58771e-05
3 *320:4 0.000619775
4 *320:5 0.00261282
5 *320:7 0.00199304
6 *320:9 0.000308855
7 *320:10 0.00216208
8 *320:12 0.00185323
9 *320:14 0.000398805
10 *320:15 0.000422264
11 *320:16 2.34591e-05
12 *320:17 0.00162102
13 *320:19 0.00180481
14 *320:20 0.000892439
15 *320:21 0.000183791
16 *320:22 0.000892439
17 *320:23 0.000627119
18 *320:25 0.00262212
19 *320:26 0.000627119
20 *320:27 0.0026708
21 *320:30 7.30143e-05
22 *320:32 0.0012062
23 *320:33 2.43381e-05
24 *320:34 0.00123187
25 *320:35 0.00158294
26 *320:36 9.73524e-05
27 *320:37 2.56639e-05
28 *320:38 0.00168261
29 *320:39 9.73524e-05
30 *320:40 0.000340733
31 *320:41 9.96762e-05
32 *320:44 0.000340733
33 *320:45 0.000444673
34 *320:47 0.000153984
35 *320:48 0.000444673
36 *320:49 0.000153984
37 *320:50 0.000573138
38 *320:52 0.000573138
39 *320:53 2.54794e-05
40 *320:54 0.00149575
41 *320:55 0.00382731
42 *320:56 0.000218057
43 *320:57 0.00235704
44 *320:59 0.000218057
45 *320:60 0.00022176
46 *320:62 2.54794e-05
47 *320:63 0.00022176
48 *320:64 2.54794e-05
49 *320:65 2.56958e-05
50 *320:67 2.56958e-05

*RES
1 *320:69 *1306:A 1.4
2 *320:67 *320:69 1.4
3 *320:66 *1303:A 1.4
4 *320:65 *320:67 0.124283
5 *320:64 *320:66 1.4
6 *320:63 *320:65 1.4
7 *320:62 *320:64 0.124286
8 *320:60 *320:63 1.1186
9 *320:59 *320:62 1.4
10 *320:58 *1305:A 1.4
11 *320:57 *320:60 1.4
12 *320:56 *320:59 1.1186
13 *320:55 *320:58 1.4
14 *320:55 *320:57 11.3099
15 *320:54 *320:56 1.4
16 *320:54 *320:55 6.96017
17 *320:53 *320:54 0.124286
18 *320:52 *320:53 1.4
19 *320:50 *320:52 2.85864
20 *320:49 *1308:A 1.4
21 *320:48 *320:50 1.4
22 *320:47 *320:49 0.745696
23 *320:45 *320:48 2.23709
24 *320:44 *320:47 1.4
25 *320:43 *1318:Y 1.4
26 *320:41 *320:45 1.4
27 *320:40 *320:44 1.73996
28 *320:39 *320:43 1.4
29 *320:38 *1302:A 1.4
30 *320:38 *320:41 0.497155
31 *320:37 *320:40 1.4
32 *320:36 *320:39 0.497131
33 *320:35 *320:38 7.83008
34 *320:34 *320:37 0.124283
35 *320:34 *320:36 1.4
36 *320:33 *320:35 1.4
37 *320:32 *320:34 5.84129
38 *320:30 *320:33 0.124283
39 *320:30 *320:32 1.4
40 *320:29 *1280:A0 1.4
41 *320:27 *320:30 0.248565
42 *320:27 *320:29 1.4
43 *320:26 *1310:A 1.4
44 *320:25 *320:27 12.5526
45 *320:23 *320:26 3.23137
46 *320:22 *320:25 1.4
47 *320:22 *1282:A0 1.4
48 *320:21 *320:23 1.4
49 *320:20 *320:22 4.59849
50 *320:19 *320:21 0.86998
51 *320:19 *320:20 1.4
52 *320:17 *320:19 7.70588
53 *320:16 *1309:A 1.4
54 *320:15 *320:17 1.4
55 *320:15 *320:16 0.124288
56 *320:14 *320:15 2.1129
57 *320:12 *320:14 1.4
58 *320:11 *1287:A0 1.4
59 *320:10 *320:12 9.69452
60 *320:10 *320:11 1.4
61 *320:9 *320:10 1.74004
62 *320:7 *320:9 1.4
63 *320:7 *1286:A0 1.4
64 *320:5 *320:7 10.0673
65 *320:5 *1285:A0 1.4
66 *320:4 *320:5 3.35563
67 *320:3 *320:4 1.4
68 *320:2 *320:3 0.372866
69 *320:1 *320:2 1.4
70 *1284:A0 *320:1 1.4
*END

*D_NET *321 0.00165949

*CONN
*I *1278:B0 I *C 81.055 62.785 *L 0.00169 *D OAI21XL
*I *1316:Y O *C 84.535 58.145 *L 0 *D NAND2XL

*CAP
1 *321:1 7.03774e-05
2 *321:2 7.03774e-05
3 *321:3 0.000313642
4 *321:4 0.000313642
5 *321:5 0.000445723
6 *321:6 0.000445723

*RES
1 *321:6 *1316:Y 1.4
2 *321:5 *321:6 2.36147
3 *321:4 *321:5 1.4
4 *321:3 *321:4 1.49146
5 *321:2 *321:3 1.4
6 *321:1 *321:2 0.372864
7 *1278:B0 *321:1 1.4
*END

*D_NET *322 0.000616574

*CONN
*I *1276:B0 I *C 87.435 62.785 *L 0.00169 *D OAI21XL
*I *1315:Y O *C 84.535 63.365 *L 0 *D NAND2XL

*CAP
1 *322:1 4.69183e-05
2 *322:2 4.69183e-05
3 *322:3 0.000261369
4 *322:4 0.000261369

*RES
1 *322:5 *1315:Y 1.4
2 *322:4 *322:5 1.4
3 *322:3 *322:4 1.24289
4 *322:2 *322:3 1.4
5 *322:1 *322:2 0.248576
6 *1276:B0 *322:1 1.4
*END

*D_NET *323 0.00299293

*CONN
*I *1274:B0 I *C 91.495 99.325 *L 0.00169 *D OAI21XL
*I *1314:Y O *C 105.125 96.135 *L 0 *D NAND2XL

*CAP
1 *323:1 2.46401e-05
2 *323:2 2.46401e-05
3 *323:3 0.00122032
4 *323:4 0.00122032
5 *323:5 0.000229546
6 *323:6 0.000229546
7 *323:7 2.1959e-05
8 *323:8 2.1959e-05

*RES
1 *323:9 *1314:Y 1.4
2 *323:8 *323:9 1.4
3 *323:7 *323:8 0.124289
4 *323:6 *323:7 1.4
5 *323:5 *323:6 1.24283
6 *323:4 *323:5 1.4
7 *323:3 *323:4 5.9656
8 *323:2 *323:3 1.4
9 *323:1 *323:2 0.124289
10 *1274:B0 *323:1 1.4
*END

*D_NET *324 0.000768576

*CONN
*I *1272:B0 I *C 102.515 96.715 *L 0.00169 *D OAI21XL
*I *1313:Y O *C 105.125 94.685 *L 0 *D NAND2XL

*CAP
1 *324:1 2.46401e-05
2 *324:2 2.46401e-05
3 *324:3 0.000178002
4 *324:4 0.000178002
5 *324:5 0.000137728
6 *324:6 0.000137728
7 *324:7 4.39181e-05
8 *324:8 4.39181e-05

*RES
1 *324:9 *1313:Y 1.4
2 *324:8 *324:9 1.4
3 *324:7 *324:8 0.248577
4 *324:6 *324:7 1.4
5 *324:5 *324:6 0.745696
6 *324:4 *324:5 1.4
7 *324:3 *324:4 0.869983
8 *324:2 *324:3 1.4
9 *324:1 *324:2 0.124289
10 *1272:B0 *324:1 1.4
*END

*D_NET *325 0.000617961

*CONN
*I *1275:B0 I *C 101.645 65.395 *L 0.00169 *D OAI21XL
*I *1312:Y O *C 104.545 64.815 *L 0 *D NAND2XL

*CAP
1 *325:2 0.000259331
2 *325:3 0.000259331
3 *325:4 4.96496e-05
4 *325:5 4.96496e-05

*RES
1 *325:5 *1312:Y 1.4
2 *325:4 *325:5 0.248577
3 *325:3 *325:4 1.4
4 *325:2 *325:3 1.24289
5 *325:1 *325:2 1.4
6 *1275:B0 *325:1 1.4
*END

*D_NET *326 0.000735446

*CONN
*I *1271:B0 I *C 47.705 65.395 *L 0.00169 *D OAI21XL
*I *1311:Y O *C 43.935 64.815 *L 0 *D NAND2XL

*CAP
1 *326:1 5.13279e-05
2 *326:2 5.13279e-05
3 *326:3 0.000316395
4 *326:4 0.000316395

*RES
1 *326:5 *1311:Y 1.4
2 *326:4 *326:5 1.4
3 *326:3 *326:4 1.61567
4 *326:2 *326:3 1.4
5 *326:1 *326:2 0.248565
6 *1271:B0 *326:1 1.4
*END

*D_NET *327 0.00131796

*CONN
*I *1270:B0 I *C 78.735 57.565 *L 0.00169 *D OAI21XL
*I *1310:Y O *C 74.385 54.375 *L 0 *D NAND2XL

*CAP
1 *327:2 0.00039366
2 *327:3 0.00039366
3 *327:4 0.00026532
4 *327:5 0.00026532

*RES
1 *327:5 *1310:Y 1.4
2 *327:4 *327:5 1.36712
3 *327:3 *327:4 1.4
4 *327:2 *327:3 1.86425
5 *327:1 *327:2 1.4
6 *1270:B0 *327:1 1.4
*END

*D_NET *328 0.000814958

*CONN
*I *1269:B0 I *C 92.075 62.785 *L 0.00169 *D OAI21XL
*I *1309:Y O *C 95.555 63.365 *L 0 *D NAND2XL

*CAP
1 *328:1 7.03774e-05
2 *328:2 7.03774e-05
3 *328:3 0.000313642
4 *328:4 0.000313642
5 *328:5 2.34591e-05
6 *328:6 2.34591e-05

*RES
1 *328:6 *1309:Y 1.4
2 *328:5 *328:6 0.124288
3 *328:4 *328:5 1.4
4 *328:3 *328:4 1.49146
5 *328:2 *328:3 1.4
6 *328:1 *328:2 0.372864
7 *1269:B0 *328:1 1.4
*END

*D_NET *329 0.000735446

*CONN
*I *1264:B0 I *C 38.715 57.565 *L 0.00169 *D OAI21XL
*I *1308:Y O *C 42.485 58.145 *L 0 *D NAND2XL

*CAP
1 *329:1 2.56639e-05
2 *329:2 2.56639e-05
3 *329:3 0.000316395
4 *329:4 0.000316395
5 *329:5 2.56639e-05
6 *329:6 2.56639e-05

*RES
1 *329:6 *1308:Y 1.4
2 *329:5 *329:6 0.124283
3 *329:4 *329:5 1.4
4 *329:3 *329:4 1.61567
5 *329:2 *329:3 1.4
6 *329:1 *329:2 0.124283
7 *1264:B0 *329:1 1.4
*END

*D_NET *330 0.00138489

*CONN
*I *1277:B0 I *C 73.805 60.175 *L 0.00169 *D OAI21XL
*I *1307:Y O *C 71.485 54.375 *L 0 *D NAND2XL

*CAP
1 *330:1 0.000482399
2 *330:2 0.000482399
3 *330:3 0.000210047
4 *330:4 0.000210047

*RES
1 *330:5 *1307:Y 1.4
2 *330:4 *330:5 1.4
3 *330:3 *330:4 0.994263
4 *330:2 *330:3 1.4
5 *330:1 *330:2 2.48567
6 *1277:B0 *330:1 1.4
*END

*D_NET *331 0.000813819

*CONN
*I *1267:B0 I *C 91.785 101.935 *L 0.00169 *D OAI21XL
*I *1306:Y O *C 95.265 101.355 *L 0 *D NAND2XL

*CAP
1 *331:1 7.39202e-05
2 *331:2 7.39202e-05
3 *331:3 0.000308349
4 *331:4 0.000308349
5 *331:5 2.46401e-05
6 *331:6 2.46401e-05

*RES
1 *331:6 *1306:Y 1.4
2 *331:5 *331:6 0.124289
3 *331:4 *331:5 1.4
4 *331:3 *331:4 1.49139
5 *331:2 *331:3 1.4
6 *331:1 *331:2 0.372866
7 *1267:B0 *331:1 1.4
*END

*D_NET *332 0.000638048

*CONN
*I *1266:B0 I *C 67.425 96.715 *L 0.00169 *D OAI21XL
*I *1305:Y O *C 68.005 99.905 *L 0 *D NAND2XL

*CAP
1 *332:2 2.62548e-05
2 *332:3 2.62548e-05
3 *332:4 0.000266514
4 *332:5 0.000266514
5 *332:6 2.62548e-05
6 *332:7 2.62548e-05

*RES
1 *332:8 *1305:Y 1.4
2 *332:7 *332:8 1.4
3 *332:6 *332:7 0.124289
4 *332:5 *332:6 1.4
5 *332:4 *332:5 1.36718
6 *332:3 *332:4 1.4
7 *332:2 *332:3 0.124289
8 *332:1 *332:2 1.4
9 *1266:B0 *332:1 1.4
*END

*D_NET *333 0.00117935

*CONN
*I *1273:B0 I *C 62.785 96.715 *L 0.00169 *D OAI21XL
*I *1304:Y O *C 59.305 94.685 *L 0 *D NAND2XL

*CAP
1 *333:2 5.25096e-05
2 *333:3 5.25096e-05
3 *333:4 0.0001696
4 *333:5 0.0001696
5 *333:6 0.000367567
6 *333:7 0.000367567

*RES
1 *333:8 *1304:Y 1.4
2 *333:7 *333:8 1.4
3 *333:6 *333:7 1.74004
4 *333:5 *333:6 1.4
5 *333:4 *333:5 0.870021
6 *333:3 *333:4 1.4
7 *333:2 *333:3 0.248577
8 *333:1 *333:2 1.4
9 *1273:B0 *333:1 1.4
*END

*D_NET *334 0.000643165

*CONN
*I *1281:B0 I *C 48.285 101.935 *L 0.00169 *D OAI21XL
*I *1303:Y O *C 51.475 101.355 *L 0 *D NAND2XL

*CAP
1 *334:1 2.49191e-05
2 *334:2 2.49191e-05
3 *334:3 0.000271744
4 *334:4 0.000271744
5 *334:5 2.49191e-05
6 *334:6 2.49191e-05

*RES
1 *334:6 *1303:Y 1.4
2 *334:5 *334:6 0.124289
3 *334:4 *334:5 1.4
4 *334:3 *334:4 1.36711
5 *334:2 *334:3 1.4
6 *334:1 *334:2 0.124289
7 *1281:B0 *334:1 1.4
*END

*D_NET *335 0.000643165

*CONN
*I *1265:B0 I *C 43.065 91.495 *L 0.00169 *D OAI21XL
*I *1302:Y O *C 46.255 90.915 *L 0 *D NAND2XL

*CAP
1 *335:2 0.000271744
2 *335:3 0.000271744
3 *335:4 4.98381e-05
4 *335:5 4.98381e-05

*RES
1 *335:5 *1302:Y 1.4
2 *335:4 *335:5 0.248578
3 *335:3 *335:4 1.4
4 *335:2 *335:3 1.36711
5 *335:1 *335:2 1.4
6 *1265:B0 *335:1 1.4
*END

*D_NET *336 0.000638094

*CONN
*I *1263:B0 I *C 36.975 65.395 *L 0.00169 *D OAI21XL
*I *1301:Y O *C 40.165 64.815 *L 0 *D NAND2XL

*CAP
1 *336:2 0.000267719
2 *336:3 0.000267719
3 *336:4 5.13279e-05
4 *336:5 5.13279e-05

*RES
1 *336:5 *1301:Y 1.4
2 *336:4 *336:5 0.248565
3 *336:3 *336:4 1.4
4 *336:2 *336:3 1.36711
5 *336:1 *336:2 1.4
6 *1263:B0 *336:1 1.4
*END

*D_NET *337 0.000497091

*CONN
*I *1268:B0 I *C 39.005 96.715 *L 0.00169 *D OAI21XL
*I *1300:Y O *C 39.875 94.685 *L 0 *D NAND2XL

*CAP
1 *337:2 4.94081e-05
2 *337:3 4.94081e-05
3 *337:4 0.000174433
4 *337:5 0.000174433
5 *337:6 2.4704e-05
6 *337:7 2.4704e-05

*RES
1 *337:8 *1300:Y 1.4
2 *337:7 *337:8 1.4
3 *337:6 *337:7 0.124283
4 *337:5 *337:6 1.4
5 *337:4 *337:5 0.870021
6 *337:3 *337:4 1.4
7 *337:2 *337:3 0.248566
8 *337:1 *337:2 1.4
9 *1268:B0 *337:1 1.4
*END

*D_NET *338 0.000631359

*CONN
*I *1232:D I *C 99.325 52.345 *L 0.00183 *D SDFFQX1
*I *1299:Y O *C 98.745 54.955 *L 0 *D AO22X1

*CAP
1 *338:2 7.84106e-05
2 *338:3 7.84106e-05
3 *338:4 0.000211132
4 *338:5 0.000211132
5 *338:6 2.61369e-05
6 *338:7 2.61369e-05

*RES
1 *338:8 *1299:Y 1.4
2 *338:7 *338:8 1.4
3 *338:6 *338:7 0.124289
4 *338:5 *338:6 1.4
5 *338:4 *338:5 1.11859
6 *338:3 *338:4 1.4
7 *338:2 *338:3 0.372866
8 *338:1 *338:2 1.4
9 *1232:D *338:1 1.4
*END

*D_NET *339 0.000745852

*CONN
*I *1224:D I *C 45.385 94.105 *L 0.00183 *D SDFFQX1
*I *1298:Y O *C 46.545 97.295 *L 0 *D OAI211X1

*CAP
1 *339:2 9.88161e-05
2 *339:3 9.88161e-05
3 *339:4 0.00027411
4 *339:5 0.00027411

*RES
1 *339:5 *1298:Y 1.4
2 *339:4 *339:5 1.36718
3 *339:3 *339:4 1.4
4 *339:2 *339:3 0.497132
5 *339:1 *339:2 1.4
6 *1224:D *339:1 1.4
*END

*D_NET *340 0.000568375

*CONN
*I *1231:D I *C 102.805 57.565 *L 0.00183 *D SDFFQX1
*I *1297:Y O *C 102.515 54.375 *L 0 *D AO22XL

*CAP
1 *340:2 2.61369e-05
2 *340:3 2.61369e-05
3 *340:4 0.00025805
4 *340:5 0.00025805

*RES
1 *340:5 *1297:Y 1.4
2 *340:4 *340:5 1.36717
3 *340:3 *340:4 1.4
4 *340:2 *340:3 0.124289
5 *340:1 *340:2 1.4
6 *1231:D *340:1 1.4
*END

*D_NET *341 0.000970882

*CONN
*I *1259:D I *C 115.565 54.955 *L 0.00183 *D SDFFQX1
*I *1296:Y O *C 114.985 59.595 *L 0 *D AO22XL

*CAP
1 *341:2 2.20611e-05
2 *341:3 2.20611e-05
3 *341:4 0.000397197
4 *341:5 0.000397197
5 *341:6 6.61832e-05
6 *341:7 6.61832e-05

*RES
1 *341:8 *1296:Y 1.4
2 *341:7 *341:8 1.4
3 *341:6 *341:7 0.372866
4 *341:5 *341:6 1.4
5 *341:4 *341:5 1.98862
6 *341:3 *341:4 1.4
7 *341:2 *341:3 0.124289
8 *341:1 *341:2 1.4
9 *1259:D *341:1 1.4
*END

*D_NET *342 0.000391669

*CONN
*I *1257:D I *C 115.565 75.835 *L 0.00183 *D SDFFQX1
*I *1295:Y O *C 115.275 73.805 *L 0 *D AO22XL

*CAP
1 *342:1 0.000173774
2 *342:2 0.000173774
3 *342:3 2.20611e-05
4 *342:4 2.20611e-05

*RES
1 *342:5 *1295:Y 1.4
2 *342:4 *342:5 1.4
3 *342:3 *342:4 0.124289
4 *342:2 *342:3 1.4
5 *342:1 *342:2 0.870021
6 *1257:D *342:1 1.4
*END

*D_NET *343 0.00193203

*CONN
*I *1229:D I *C 112.665 81.055 *L 0.00183 *D SDFFQX1
*I *1294:Y O *C 107.445 75.255 *L 0 *D AO22XL

*CAP
1 *343:1 4.59092e-05
2 *343:2 4.59092e-05
3 *343:3 0.000351344
4 *343:4 0.000351344
5 *343:5 0.000524638
6 *343:6 0.000524638
7 *343:7 4.41221e-05
8 *343:8 4.41221e-05

*RES
1 *343:9 *1294:Y 1.4
2 *343:8 *343:9 1.4
3 *343:7 *343:8 0.248578
4 *343:6 *343:7 1.4
5 *343:5 *343:6 2.73428
6 *343:4 *343:5 1.4
7 *343:3 *343:4 1.98862
8 *343:2 *343:3 1.4
9 *343:1 *343:2 0.248565
10 *1229:D *343:1 1.4
*END

*D_NET *344 0.000930244

*CONN
*I *1255:D I *C 119.625 94.105 *L 0.00183 *D SDFFQX1
*I *1293:Y O *C 114.695 94.685 *L 0 *D AO22XL

*CAP
1 *344:1 6.88638e-05
2 *344:2 6.88638e-05
3 *344:3 0.000373303
4 *344:4 0.000373303
5 *344:5 2.29546e-05
6 *344:6 2.29546e-05

*RES
1 *344:6 *1293:Y 1.4
2 *344:5 *344:6 0.124283
3 *344:4 *344:5 1.4
4 *344:3 *344:4 2.11291
5 *344:2 *344:3 1.4
6 *344:1 *344:2 0.372848
7 *1255:D *344:1 1.4
*END

*D_NET *345 0.000583151

*CONN
*I *1253:D I *C 52.925 70.615 *L 0.00183 *D SDFFQX1
*I *1292:Y O *C 53.215 73.805 *L 0 *D AO22XL

*CAP
1 *345:1 0.00026532
2 *345:2 0.00026532
3 *345:3 2.62559e-05
4 *345:4 2.62559e-05

*RES
1 *345:5 *1292:Y 1.4
2 *345:4 *345:5 1.4
3 *345:3 *345:4 0.124283
4 *345:2 *345:3 1.4
5 *345:1 *345:2 1.36712
6 *1253:D *345:1 1.4
*END

*D_NET *346 0.000838425

*CONN
*I *1227:D I *C 112.955 88.885 *L 0.00183 *D SDFFQX1
*I *1291:Y O *C 108.025 89.465 *L 0 *D AO22XL

*CAP
1 *346:1 4.59092e-05
2 *346:2 4.59092e-05
3 *346:3 0.000373303
4 *346:4 0.000373303

*RES
1 *346:5 *1291:Y 1.4
2 *346:4 *346:5 1.4
3 *346:3 *346:4 2.11291
4 *346:2 *346:3 1.4
5 *346:1 *346:2 0.248565
6 *1227:D *346:1 1.4
*END

*D_NET *347 0.0012398

*CONN
*I *1251:D I *C 56.695 91.495 *L 0.00183 *D SDFFQX1
*I *1290:Y O *C 54.665 96.135 *L 0 *D AO22XL

*CAP
1 *347:1 0.000411886
2 *347:2 0.000411886
3 *347:3 0.000183783
4 *347:4 0.000183783
5 *347:5 2.42286e-05
6 *347:6 2.42286e-05

*RES
1 *347:6 *1290:Y 1.4
2 *347:5 *347:6 0.124289
3 *347:4 *347:5 1.4
4 *347:3 *347:4 0.870021
5 *347:2 *347:3 1.4
6 *347:1 *347:2 2.11291
7 *1251:D *347:1 1.4
*END

*D_NET *348 0.000856664

*CONN
*I *1249:D I *C 44.515 70.615 *L 0.00183 *D SDFFQX1
*I *1289:Y O *C 45.095 73.805 *L 0 *D AO22XL

*CAP
1 *348:2 4.86762e-05
2 *348:3 4.86762e-05
3 *348:4 0.000282303
4 *348:5 0.000282303
5 *348:6 9.73524e-05
6 *348:7 9.73524e-05

*RES
1 *348:8 *1289:Y 1.4
2 *348:7 *348:8 1.4
3 *348:6 *348:7 0.497131
4 *348:5 *348:6 1.4
5 *348:4 *348:5 1.36711
6 *348:3 *348:4 1.4
7 *348:2 *348:3 0.248565
8 *348:1 *348:2 1.4
9 *1249:D *348:1 1.4
*END

*D_NET *349 0.00117485

*CONN
*I *1225:D I *C 66.845 62.785 *L 0.00183 *D SDFFQX1
*I *1288:Y O *C 68.005 68.585 *L 0 *D AO22XL

*CAP
1 *349:2 5.25118e-05
2 *349:3 5.25118e-05
3 *349:4 0.000482399
4 *349:5 0.000482399
5 *349:6 5.25118e-05
6 *349:7 5.25118e-05

*RES
1 *349:8 *1288:Y 1.4
2 *349:7 *349:8 1.4
3 *349:6 *349:7 0.248566
4 *349:5 *349:6 1.4
5 *349:4 *349:5 2.48567
6 *349:3 *349:4 1.4
7 *349:2 *349:3 0.248566
8 *349:1 *349:2 1.4
9 *1225:D *349:1 1.4
*END

*D_NET *350 0.0012521

*CONN
*I *1246:D I *C 123.975 54.955 *L 0.00183 *D SDFFQX1
*I *1287:Y O *C 119.335 58.145 *L 0 *D AO22XL

*CAP
1 *350:2 0.000352977
2 *350:3 0.000352977
3 *350:4 0.000273073
4 *350:5 0.000273073

*RES
1 *350:5 *1287:Y 1.4
2 *350:4 *350:5 1.36718
3 *350:3 *350:4 1.4
4 *350:2 *350:3 1.98862
5 *350:1 *350:2 1.4
6 *1246:D *350:1 1.4
*END

*D_NET *351 0.00123561

*CONN
*I *1245:D I *C 120.495 62.785 *L 0.00183 *D SDFFQX1
*I *1286:Y O *C 123.395 58.145 *L 0 *D AO22XL

*CAP
1 *351:1 0.000397197
2 *351:2 0.000397197
3 *351:3 0.000220611
4 *351:4 0.000220611

*RES
1 *351:5 *1286:Y 1.4
2 *351:4 *351:5 1.4
3 *351:3 *351:4 1.24289
4 *351:2 *351:3 1.4
5 *351:1 *351:2 1.98862
6 *1245:D *351:1 1.4
*END

*D_NET *352 0.00140128

*CONN
*I *1243:D I *C 120.205 86.275 *L 0.00183 *D SDFFQX1
*I *1285:Y O *C 123.395 80.475 *L 0 *D AO22XL

*CAP
1 *352:2 0.000241549
2 *352:3 0.000241549
3 *352:4 0.000459092
4 *352:5 0.000459092

*RES
1 *352:5 *1285:Y 1.4
2 *352:4 *352:5 2.48565
3 *352:3 *352:4 1.4
4 *352:2 *352:3 1.36718
5 *352:1 *352:2 1.4
6 *1243:D *352:1 1.4
*END

*D_NET *353 0.000632773

*CONN
*I *1241:D I *C 121.075 91.495 *L 0.00183 *D SDFFQX1
*I *1284:Y O *C 122.525 89.465 *L 0 *D AO22XL

*CAP
1 *353:1 2.29546e-05
2 *353:2 2.29546e-05
3 *353:3 0.000109795
4 *353:4 0.000109795
5 *353:5 0.000183637
6 *353:6 0.000183637

*RES
1 *353:6 *1284:Y 1.4
2 *353:5 *353:6 0.994261
3 *353:4 *353:5 1.4
4 *353:3 *353:4 0.621444
5 *353:2 *353:3 1.4
6 *353:1 *353:2 0.124283
7 *1241:D *353:1 1.4
*END

*D_NET *354 0.00154025

*CONN
*I *1221:D I *C 43.935 86.275 *L 0.00183 *D SDFFQX1
*I *1283:Y O *C 45.965 80.475 *L 0 *D AO22XL

*CAP
1 *354:2 0.000222336
2 *354:3 0.000222336
3 *354:4 0.000498381
4 *354:5 0.000498381
5 *354:6 4.94081e-05
6 *354:7 4.94081e-05

*RES
1 *354:8 *1283:Y 1.4
2 *354:7 *354:8 1.4
3 *354:6 *354:7 0.248566
4 *354:5 *354:6 1.4
5 *354:4 *354:5 2.48577
6 *354:3 *354:4 1.4
7 *354:2 *354:3 1.11855
8 *354:1 *354:2 1.4
9 *1221:D *354:1 1.4
*END

*D_NET *355 0.000784655

*CONN
*I *1239:D I *C 74.385 70.615 *L 0.00183 *D SDFFQX1
*I *1282:Y O *C 75.255 73.805 *L 0 *D AO22XL

*CAP
1 *355:1 0.00028944
2 *355:2 0.00028944
3 *355:3 7.87677e-05
4 *355:4 7.87677e-05
5 *355:5 2.412e-05
6 *355:6 2.412e-05

*RES
1 *355:6 *1282:Y 1.4
2 *355:5 *355:6 0.124284
3 *355:4 *355:5 1.4
4 *355:3 *355:4 0.372849
5 *355:2 *355:3 1.4
6 *355:1 *355:2 1.4914
7 *1239:D *355:1 1.4
*END

*D_NET *356 0.00133559

*CONN
*I *1237:D I *C 43.355 104.545 *L 0.00183 *D SDFFQX1
*I *1281:Y O *C 48.575 101.355 *L 0 *D OAI21XL

*CAP
1 *356:2 0.000396252
2 *356:3 0.000396252
3 *356:4 0.000271541
4 *356:5 0.000271541

*RES
1 *356:5 *1281:Y 1.4
2 *356:4 *356:5 1.36717
3 *356:3 *356:4 1.4
4 *356:2 *356:3 2.2372
5 *356:1 *356:2 1.4
6 *1237:D *356:1 1.4
*END

*D_NET *357 0.000456647

*CONN
*I *1235:D I *C 48.865 75.835 *L 0.00183 *D SDFFQX1
*I *1280:Y O *C 49.445 73.805 *L 0 *D AO22XL

*CAP
1 *357:2 2.43381e-05
2 *357:3 2.43381e-05
3 *357:4 0.000179648
4 *357:5 0.000179648
5 *357:6 2.43381e-05
6 *357:7 2.43381e-05

*RES
1 *357:8 *1280:Y 1.4
2 *357:7 *357:8 1.4
3 *357:6 *357:7 0.124283
4 *357:5 *357:6 1.4
5 *357:4 *357:5 0.869979
6 *357:3 *357:4 1.4
7 *357:2 *357:3 0.124283
8 *357:1 *357:2 1.4
9 *1235:D *357:1 1.4
*END

*D_NET *358 0.000497091

*CONN
*I *1250:D I *C 34.655 94.105 *L 0.00183 *D SDFFQX1
*I *1279:Y O *C 33.785 92.075 *L 0 *D OAI211X1

*CAP
1 *358:2 4.94081e-05
2 *358:3 4.94081e-05
3 *358:4 0.000174433
4 *358:5 0.000174433
5 *358:6 2.4704e-05
6 *358:7 2.4704e-05

*RES
1 *358:8 *1279:Y 1.4
2 *358:7 *358:8 1.4
3 *358:6 *358:7 0.124283
4 *358:5 *358:6 1.4
5 *358:4 *358:5 0.870021
6 *358:3 *358:4 1.4
7 *358:2 *358:3 0.248566
8 *358:1 *358:2 1.4
9 *1250:D *358:1 1.4
*END

*D_NET *359 0.00114339

*CONN
*I *1258:D I *C 84.825 60.175 *L 0.00183 *D SDFFQX1
*I *1278:Y O *C 81.345 63.365 *L 0 *D OAI21XL

*CAP
1 *359:1 2.34591e-05
2 *359:2 2.34591e-05
3 *359:3 0.000313642
4 *359:4 0.000313642
5 *359:5 0.000234591
6 *359:6 0.000234591

*RES
1 *359:6 *1278:Y 1.4
2 *359:5 *359:6 1.24288
3 *359:4 *359:5 1.4
4 *359:3 *359:4 1.49146
5 *359:2 *359:3 1.4
6 *359:1 *359:2 0.124288
7 *1258:D *359:1 1.4
*END

*D_NET *360 0.00161166

*CONN
*I *1230:D I *C 75.255 52.345 *L 0.00183 *D SDFFQX1
*I *1277:Y O *C 73.515 59.595 *L 0 *D OAI21XL

*CAP
1 *360:1 2.28644e-05
2 *360:2 2.28644e-05
3 *360:3 0.000157103
4 *360:4 0.000157103
5 *360:5 0.000625864
6 *360:6 0.000625864

*RES
1 *360:6 *1277:Y 1.4
2 *360:5 *360:6 3.23137
3 *360:4 *360:5 1.4
4 *360:3 *360:4 0.745732
5 *360:2 *360:3 1.4
6 *360:1 *360:2 0.124284
7 *1230:D *360:1 1.4
*END

*D_NET *361 0.000485249

*CONN
*I *1256:D I *C 87.435 65.395 *L 0.00183 *D SDFFQX1
*I *1276:Y O *C 87.145 63.365 *L 0 *D OAI21XL

*CAP
1 *361:2 5.22737e-05
2 *361:3 5.22737e-05
3 *361:4 0.000164214
4 *361:5 0.000164214
5 *361:6 2.61369e-05
6 *361:7 2.61369e-05

*RES
1 *361:8 *1276:Y 1.4
2 *361:7 *361:8 1.4
3 *361:6 *361:7 0.124289
4 *361:5 *361:6 1.4
5 *361:4 *361:5 0.870017
6 *361:3 *361:4 1.4
7 *361:2 *361:3 0.248578
8 *361:1 *361:2 1.4
9 *1256:D *361:1 1.4
*END

*D_NET *362 0.00078818

*CONN
*I *1228:D I *C 103.965 62.785 *L 0.00183 *D SDFFQX1
*I *1275:Y O *C 101.935 64.815 *L 0 *D OAI21XL

*CAP
1 *362:1 2.34591e-05
2 *362:2 2.34591e-05
3 *362:3 0.000156821
4 *362:4 0.000156821
5 *362:5 0.000187673
6 *362:6 0.000187673
7 *362:7 2.61369e-05
8 *362:8 2.61369e-05

*RES
1 *362:9 *1275:Y 1.4
2 *362:8 *362:9 1.4
3 *362:7 *362:8 0.124289
4 *362:6 *362:7 1.4
5 *362:5 *362:6 0.994305
6 *362:4 *362:5 1.4
7 *362:3 *362:4 0.745732
8 *362:2 *362:3 1.4
9 *362:1 *362:2 0.124288
10 *1228:D *362:1 1.4
*END

*D_NET *363 0.001075

*CONN
*I *1254:D I *C 97.295 99.325 *L 0.00183 *D SDFFQX1
*I *1274:Y O *C 91.785 99.905 *L 0 *D OAI21XL

*CAP
1 *363:1 4.92801e-05
2 *363:2 4.92801e-05
3 *363:3 0.00048822
4 *363:4 0.00048822

*RES
1 *363:5 *1274:Y 1.4
2 *363:4 *363:5 1.4
3 *363:3 *363:4 2.36137
4 *363:2 *363:3 1.4
5 *363:1 *363:2 0.248577
6 *1254:D *363:1 1.4
*END

*D_NET *364 0.00173264

*CONN
*I *1252:D I *C 57.565 99.325 *L 0.00183 *D SDFFQX1
*I *1273:Y O *C 62.495 96.135 *L 0 *D OAI21XL

*CAP
1 *364:1 2.42286e-05
2 *364:2 2.42286e-05
3 *364:3 0.000498841
4 *364:4 0.000498841
5 *364:5 0.000290743
6 *364:6 0.000290743
7 *364:7 5.25096e-05
8 *364:8 5.25096e-05

*RES
1 *364:9 *1273:Y 1.4
2 *364:8 *364:9 1.4
3 *364:7 *364:8 0.248577
4 *364:6 *364:7 1.4
5 *364:5 *364:6 1.49146
6 *364:4 *364:5 1.4
7 *364:3 *364:4 2.36149
8 *364:2 *364:3 1.4
9 *364:1 *364:2 0.124289
10 *1252:D *364:1 1.4
*END

*D_NET *365 0.00134112

*CONN
*I *1226:D I *C 104.255 101.935 *L 0.00183 *D SDFFQX1
*I *1272:Y O *C 102.805 96.135 *L 0 *D OAI21XL

*CAP
1 *365:1 0.000517441
2 *365:2 0.000517441
3 *365:3 0.000128479
4 *365:4 0.000128479
5 *365:5 2.46401e-05
6 *365:6 2.46401e-05

*RES
1 *365:6 *1272:Y 1.4
2 *365:5 *365:6 0.124289
3 *365:4 *365:5 1.4
4 *365:3 *365:4 0.621414
5 *365:2 *365:3 1.4
6 *365:1 *365:2 2.61006
7 *1226:D *365:1 1.4
*END

*D_NET *366 0.000661959

*CONN
*I *1247:D I *C 47.415 68.005 *L 0.00183 *D SDFFQX1
*I *1271:Y O *C 47.995 64.815 *L 0 *D OAI21XL

*CAP
1 *366:2 2.43381e-05
2 *366:3 2.43381e-05
3 *366:4 0.000282303
4 *366:5 0.000282303
5 *366:6 2.43381e-05
6 *366:7 2.43381e-05

*RES
1 *366:8 *1271:Y 1.4
2 *366:7 *366:8 1.4
3 *366:6 *366:7 0.124283
4 *366:5 *366:6 1.4
5 *366:4 *366:5 1.36711
6 *366:3 *366:4 1.4
7 *366:2 *366:3 0.124283
8 *366:1 *366:2 1.4
9 *1247:D *366:1 1.4
*END

*D_NET *367 0.00124793

*CONN
*I *1244:D I *C 83.085 54.955 *L 0.00183 *D SDFFQX1
*I *1270:Y O *C 79.025 58.145 *L 0 *D OAI21XL

*CAP
1 *367:1 0.00025805
2 *367:2 0.00025805
3 *367:3 0.000365916
4 *367:4 0.000365916

*RES
1 *367:5 *1270:Y 1.4
2 *367:4 *367:5 1.4
3 *367:3 *367:4 1.74004
4 *367:2 *367:3 1.4
5 *367:1 *367:2 1.36717
6 *1244:D *367:1 1.4
*END

*D_NET *368 0.000516101

*CONN
*I *1242:D I *C 92.365 60.175 *L 0.00183 *D SDFFQX1
*I *1269:Y O *C 92.365 63.365 *L 0 *D OAI21XL

*CAP
1 *368:1 0.00025805
2 *368:2 0.00025805

*RES
1 *368:2 *1269:Y 1.4
2 *368:1 *368:2 1.36717
3 *1242:D *368:1 1.4
*END

*D_NET *369 0.000844668

*CONN
*I *1222:D I *C 37.555 99.325 *L 0.00183 *D SDFFQX1
*I *1268:Y O *C 39.295 96.135 *L 0 *D OAI21XL

*CAP
1 *369:1 2.49191e-05
2 *369:2 2.49191e-05
3 *369:3 0.00012352
4 *369:4 0.00012352
5 *369:5 0.000249191
6 *369:6 0.000249191
7 *369:7 2.4704e-05
8 *369:8 2.4704e-05

*RES
1 *369:9 *1268:Y 1.4
2 *369:8 *369:9 1.4
3 *369:7 *369:8 0.124283
4 *369:6 *369:7 1.4
5 *369:5 *369:6 1.24289
6 *369:4 *369:5 1.4
7 *369:3 *369:4 0.621414
8 *369:2 *369:3 1.4
9 *369:1 *369:2 0.124289
10 *1222:D *369:1 1.4
*END

*D_NET *370 0.000587945

*CONN
*I *1240:D I *C 92.365 104.545 *L 0.00183 *D SDFFQX1
*I *1267:Y O *C 92.075 101.355 *L 0 *D OAI21XL

*CAP
1 *370:2 2.50188e-05
2 *370:3 2.50188e-05
3 *370:4 0.000268954
4 *370:5 0.000268954

*RES
1 *370:5 *1267:Y 1.4
2 *370:4 *370:5 1.36718
3 *370:3 *370:4 1.4
4 *370:2 *370:3 0.124283
5 *370:1 *370:2 1.4
6 *1240:D *370:1 1.4
*END

*D_NET *371 0.00102165

*CONN
*I *1238:D I *C 67.425 101.935 *L 0.00183 *D SDFFQX1
*I *1266:Y O *C 67.715 96.135 *L 0 *D OAI21XL

*CAP
1 *371:1 0.000484572
2 *371:2 0.000484572
3 *371:3 2.62548e-05
4 *371:4 2.62548e-05

*RES
1 *371:5 *1266:Y 1.4
2 *371:4 *371:5 1.4
3 *371:3 *371:4 0.124289
4 *371:2 *371:3 1.4
5 *371:1 *371:2 2.48577
6 *1238:D *371:1 1.4
*END

*D_NET *372 0.000892356

*CONN
*I *1236:D I *C 40.165 88.885 *L 0.00183 *D SDFFQX1
*I *1265:Y O *C 43.355 90.915 *L 0 *D OAI21XL

*CAP
1 *372:1 0.000174433
2 *372:2 0.000174433
3 *372:3 0.000271744
4 *372:4 0.000271744

*RES
1 *372:5 *1265:Y 1.4
2 *372:4 *372:5 1.4
3 *372:3 *372:4 1.36711
4 *372:2 *372:3 1.4
5 *372:1 *372:2 0.870021
6 *1236:D *372:1 1.4
*END

*D_NET *373 0.0011974

*CONN
*I *1233:D I *C 35.235 54.955 *L 0.00183 *D SDFFQX1
*I *1264:Y O *C 38.425 58.145 *L 0 *D OAI21XL

*CAP
1 *373:1 5.13279e-05
2 *373:2 5.13279e-05
3 *373:3 0.000292057
4 *373:4 0.000292057
5 *373:5 0.000230975
6 *373:6 0.000230975
7 *373:7 2.43381e-05
8 *373:8 2.43381e-05

*RES
1 *373:9 *1264:Y 1.4
2 *373:8 *373:9 1.4
3 *373:7 *373:8 0.124283
4 *373:6 *373:7 1.4
5 *373:5 *373:6 1.11854
6 *373:4 *373:5 1.4
7 *373:3 *373:4 1.49139
8 *373:2 *373:3 1.4
9 *373:1 *373:2 0.248565
10 *1233:D *373:1 1.4
*END

*D_NET *374 0.000710635

*CONN
*I *1219:D I *C 36.395 68.005 *L 0.00183 *D SDFFQX1
*I *1263:Y O *C 37.265 64.815 *L 0 *D OAI21XL

*CAP
1 *374:2 7.30143e-05
2 *374:3 7.30143e-05
3 *374:4 0.000282303
4 *374:5 0.000282303

*RES
1 *374:5 *1263:Y 1.4
2 *374:4 *374:5 1.36711
3 *374:3 *374:4 1.4
4 *374:2 *374:3 0.372848
5 *374:1 *374:2 1.4
6 *1219:D *374:1 1.4
*END

*D_NET *375 0.00163907

*CONN
*I *1223:D I *C 39.875 101.935 *L 0.00183 *D SDFFQX1
*I *1262:Y O *C 42.485 97.295 *L 0 *D OAI211X1

*CAP
1 *375:1 4.98381e-05
2 *375:2 4.98381e-05
3 *375:3 0.000271744
4 *375:4 0.000271744
5 *375:5 0.000448543
6 *375:6 0.000448543
7 *375:7 4.94081e-05
8 *375:8 4.94081e-05

*RES
1 *375:9 *1262:Y 1.4
2 *375:8 *375:9 1.4
3 *375:7 *375:8 0.248566
4 *375:6 *375:7 1.4
5 *375:5 *375:6 2.2372
6 *375:4 *375:5 1.4
7 *375:3 *375:4 1.36711
8 *375:2 *375:3 1.4
9 *375:1 *375:2 0.248578
10 *1223:D *375:1 1.4
*END

*D_NET *376 0.00112536

*CONN
*I *1260:D I *C 111.505 57.565 *L 0.00183 *D SDFFQX1
*I *1261:Y O *C 110.635 63.365 *L 0 *D AO22XL

*CAP
1 *376:1 4.96496e-05
2 *376:2 4.96496e-05
3 *376:3 6.61832e-05
4 *376:4 6.61832e-05
5 *376:5 0.000446846
6 *376:6 0.000446846

*RES
1 *376:6 *1261:Y 1.4
2 *376:5 *376:6 2.2372
3 *376:4 *376:5 1.4
4 *376:3 *376:4 0.372866
5 *376:2 *376:3 1.4
6 *376:1 *376:2 0.248577
7 *1260:D *376:1 1.4
*END

*D_NET *377 0.00220824

*CONN
*I *942:B I *C 39.875 41.905 *L 0.00172 *D AND2X1
*I *941:C I *C 39.585 47.125 *L 0.00167 *D AND3X1
*I *940:C I *C 38.425 41.905 *L 0.00167 *D AND3X1
*I *950:C I *C 39.585 49.735 *L 0.00167 *D AND3X1
*I *1218:Y O *C 39.875 38.715 *L 0 *D NOR3BX1

*CAP
1 *377:2 2.52156e-05
2 *377:3 0.000126078
3 *377:4 0.000727156
4 *377:5 0.000100863
5 *377:6 0.000677008
6 *377:7 0.000275818
7 *377:9 0.000225669
8 *377:11 2.52156e-05
9 *377:14 2.52156e-05

*RES
1 *377:15 *1218:Y 1.4
2 *377:14 *377:15 1.4
3 *377:11 *377:14 0.124283
4 *377:9 *950:C 1.4
5 *377:8 *940:C 1.4
6 *377:7 *377:11 1.4
7 *377:6 *941:C 1.4
8 *377:6 *377:9 1.1186
9 *377:5 *377:8 1.4
10 *377:4 *377:7 1.36717
11 *377:4 *377:6 2.23719
12 *377:3 *377:5 0.497132
13 *377:3 *377:4 1.4
14 *377:2 *377:3 0.124283
15 *377:1 *377:2 1.4
16 *942:B *377:1 1.4
*END

*D_NET *378 0.00393037

*CONN
*I *1131:AN I *C 46.545 44.515 *L 0.00174 *D NOR2BX1
*I *946:B I *C 44.225 44.4875 *L 0.00178 *D AND3X1
*I *942:A I *C 40.455 41.905 *L 0.00178 *D AND2X1
*I *1217:Y O *C 40.755 36.975 *L 0 *D NOR2BX1
*I *1128:B I *C 47.705 36.685 *L 0.00167 *D NAND2XL

*CAP
1 *378:1 2.50744e-05
2 *378:2 2.50744e-05
3 *378:3 0.000201725
4 *378:4 0.000277372
5 *378:5 2.72359e-05
6 *378:6 7.56469e-05
7 *378:7 2.72359e-05
8 *378:8 0.00017552
9 *378:10 0.00017552
10 *378:11 0.000176509
11 *378:12 0.000176509
12 *378:13 0.000100297
13 *378:14 0.000501487
14 *378:15 7.56469e-05
15 *378:16 0.000451338
16 *378:17 7.56469e-05
17 *378:18 5.04313e-05
18 *378:19 5.01487e-05
19 *378:20 2.50744e-05
20 *378:21 5.04313e-05
21 *378:22 0.000554744
22 *378:23 2.50744e-05
23 *378:24 8.64633e-07
24 *378:25 0.000554744
25 *378:27 8.64633e-07
26 *378:28 2.50744e-05
27 *378:30 2.50744e-05

*RES
1 *378:30 *1128:B 1.4
2 *378:28 *378:30 0.124289
3 *378:27 *1217:Y 1.4
4 *378:25 *378:28 1.4
5 *378:24 *378:27 0.00428581
6 *378:23 *942:A 1.4
7 *378:22 *378:25 2.73422
8 *378:21 *378:24 1.4
9 *378:20 *378:23 0.124289
10 *378:19 *378:22 1.4
11 *378:18 *378:21 0.248566
12 *378:17 *378:20 1.4
13 *378:16 *378:19 0.248577
14 *378:16 *378:18 1.4
15 *378:15 *378:17 0.372849
16 *378:14 *378:16 1.98862
17 *378:14 *378:15 1.4
18 *378:13 *378:14 0.497154
19 *378:12 *378:13 1.4
20 *378:11 *378:12 0.86998
21 *378:10 *378:11 1.4
22 *378:8 *378:10 0.87002
23 *378:7 *946:B 1.4
24 *378:6 *378:8 1.4
25 *378:5 *378:7 0.135003
26 *378:4 *378:6 0.372849
27 *378:4 *378:5 1.4
28 *378:3 *378:4 0.994263
29 *378:2 *378:3 1.4
30 *378:1 *378:2 0.124289
31 *1131:AN *378:1 1.4
*END

*D_NET *379 0.00281118

*CONN
*I *944:B I *C 46.545 52.345 *L 0.00171 *D NOR2XL
*I *951:A I *C 46.545 49.445 *L 0.00273 *D CLKINVX1
*I *1216:Y O *C 44.225 38.425 *L 0 *D NAND2BX1

*CAP
1 *379:1 0.000251038
2 *379:2 0.00120386
3 *379:4 0.000952825
4 *379:5 0.000201725
5 *379:6 0.000201725

*RES
1 *379:7 *1216:Y 1.4
2 *379:6 *379:7 1.4
3 *379:5 *379:6 0.994263
4 *379:4 *379:5 1.4
5 *379:2 *379:4 4.72296
6 *379:2 *951:A 1.4
7 *379:1 *379:2 1.24288
8 *944:B *379:1 1.4
*END

*D_NET *380 0.00469631

*CONN
*I *967:B I *C 71.195 96.135 *L 0.00284 *D NAND2X1
*I *960:B I *C 69.165 94.395 *L 0.00449 *D ADDHX1
*I *968:B0 I *C 51.765 99.615 *L 0.00175 *D AO21X1
*I *969:Y O *C 51.185 95.845 *L 0 *D NOR2X1

*CAP
1 *380:1 2.42286e-05
2 *380:2 2.42286e-05
3 *380:3 0.000183783
4 *380:4 0.000210038
5 *380:5 0.0001696
6 *380:6 2.62548e-05
7 *380:7 0.0001696
8 *380:8 2.42286e-05
9 *380:10 2.42286e-05
10 *380:11 0.00154671
11 *380:12 0.00154671
12 *380:13 0.000323948
13 *380:14 0.000299029
14 *380:15 2.49191e-05
15 *380:17 4.94081e-05
16 *380:18 4.94081e-05

*RES
1 *380:19 *969:Y 1.4
2 *380:18 *380:19 1.4
3 *380:17 *380:18 0.248566
4 *380:15 *380:17 1.4
5 *380:14 *968:B0 1.4
6 *380:13 *380:15 0.124289
7 *380:13 *380:14 1.49146
8 *380:12 *380:13 1.4
9 *380:11 *380:12 7.33303
10 *380:10 *380:11 1.4
11 *380:8 *380:10 0.124289
12 *380:7 *960:B 1.4
13 *380:6 *380:8 1.4
14 *380:5 *380:7 0.870021
15 *380:4 *380:6 0.124289
16 *380:4 *380:5 1.4
17 *380:3 *380:4 0.870021
18 *380:2 *380:3 1.4
19 *380:1 *380:2 0.124289
20 *967:B *380:1 1.4
*END

*D_NET *381 0.00771307

*CONN
*I *966:D I *C 98.315 88.81 *L 0.00164 *D OR4X1
*I *963:A1 I *C 97.585 96.135 *L 0.00163 *D AO21X1
*I *965:B I *C 94.395 96.715 *L 0.00171 *D NOR2XL
*I *967:Y O *C 71.195 97.005 *L 0 *D NAND2X1
*I *955:B0 I *C 68.875 91.205 *L 0.0028 *D OAI21X1

*CAP
1 *381:1 1.18952e-05
2 *381:2 1.82676e-05
3 *381:3 6.37243e-06
4 *381:4 5.13916e-05
5 *381:5 5.13916e-05
6 *381:6 0.000665281
7 *381:7 0.000665281
8 *381:8 2.56958e-05
9 *381:9 0.000308349
10 *381:10 4.92801e-05
11 *381:11 0.00235201
12 *381:12 4.92801e-05
13 *381:14 0.00225314
14 *381:17 2.42286e-05
15 *381:18 0.000183783
16 *381:19 2.42286e-05
17 *381:20 9.69143e-05
18 *381:22 9.69143e-05
19 *381:24 0.000363429
20 *381:25 0.000363429
21 *381:26 2.62548e-05
22 *381:27 2.62548e-05

*RES
1 *381:28 *955:B0 1.4
2 *381:27 *381:28 1.4
3 *381:26 *381:27 0.124289
4 *381:25 *381:26 1.4
5 *381:24 *381:25 1.86433
6 *381:23 *381:24 1.4
7 *381:22 *381:23 1.4
8 *381:20 *381:22 0.497155
9 *381:19 *967:Y 1.4
10 *381:18 *381:20 1.4
11 *381:17 *381:19 0.124289
12 *381:14 *381:18 0.870021
13 *381:14 *381:17 1.4
14 *381:13 *965:B 1.4
15 *381:12 *963:A1 1.4
16 *381:11 *381:14 9.94277
17 *381:11 *381:13 1.4
18 *381:10 *381:12 0.248577
19 *381:9 *381:11 1.36711
20 *381:9 *381:10 1.4
21 *381:8 *381:9 0.124283
22 *381:7 *381:8 1.4
23 *381:6 *381:7 3.3558
24 *381:5 *381:6 1.4
25 *381:4 *381:5 0.248566
26 *381:3 *381:4 1.4
27 *381:2 *381:3 0.0321436
28 *381:1 *381:2 0.0600015
29 *966:D *381:1 1.4
*END

*D_NET *382 0.000745033

*CONN
*I *1066:B1 I *C 59.595 73.225 *L 0.00174 *D OAI22XL
*I *1215:Y O *C 55.9075 73.515 *L 0 *D INVX1

*CAP
1 *382:1 2.412e-05
2 *382:2 2.412e-05
3 *382:3 0.000341327
4 *382:4 0.000341327
5 *382:5 7.06965e-06
6 *382:6 7.06965e-06

*RES
1 *382:6 *1215:Y 1.4
2 *382:5 *382:6 0.0364279
3 *382:4 *382:5 1.4
4 *382:3 *382:4 1.61568
5 *382:2 *382:3 1.4
6 *382:1 *382:2 0.124284
7 *1066:B1 *382:1 1.4
*END

*D_NET *383 0.000706586

*CONN
*I *1066:A1 I *C 59.015 73.515 *L 0.00172 *D OAI22XL
*I *1214:Y O *C 57.9375 70.615 *L 0 *D INVXL

*CAP
1 *383:1 0.00019296
2 *383:2 0.00019296
3 *383:3 0.000105024
4 *383:4 0.000105024
5 *383:5 4.82399e-05
6 *383:6 5.53096e-05
7 *383:7 7.06965e-06

*RES
1 *383:7 *1214:Y 1.4
2 *383:6 *383:7 0.0364279
3 *383:5 *383:6 0.248567
4 *383:4 *383:5 1.4
5 *383:3 *383:4 0.497131
6 *383:2 *383:3 1.4
7 *383:1 *383:2 0.994268
8 *1066:A1 *383:1 1.4
*END

*D_NET *384 0.022096

*CONN
*I *1177:A0 I *C 32.625 39.005 *L 0.00157 *D AOI22XL
*I *1176:A0 I *C 30.015 39.005 *L 0.00157 *D AOI22XL
*I *1178:A1 I *C 25.085 42.485 *L 0.0028 *D AOI22X1
*I *1175:A0 I *C 27.695 44.225 *L 0.00157 *D AOI22XL
*I *1185:A1 I *C 22.765 49.155 *L 0.0028 *D AOI22X1
*I *1184:A1 I *C 17.255 54.375 *L 0.0028 *D AOI22X1
*I *1182:A1 I *C 8.845 52.925 *L 0.0028 *D AOI22X1
*I *1213:Y O *C 8.845 60.465 *L 0 *D INVX8
*I *1183:A1 I *C 15.225 43.935 *L 0.0028 *D AOI22X1
*I *1353:B1 I *C 23.345 65.395 *L 0.00171 *D AO22XL
*I *1133:A1 I *C 14.935 68.295 *L 0.00268 *D AOI221X1
*I *1206:B I *C 14.355 78.445 *L 0.00381 *D CLKAND2X3
*I *1352:B1 I *C 32.045 68.005 *L 0.00171 *D AO22XL
*I *1180:A1 I *C 32.625 59.595 *L 0.0028 *D AOI22X1
*I *1205:B I *C 16.095 83.665 *L 0.00217 *D CLKAND2X2
*I *1354:B1 I *C 32.045 65.395 *L 0.00171 *D AO22XL
*I *1181:B1 I *C 33.205 81.055 *L 0.00282 *D OAI22X1
*I *1179:B1 I *C 16.385 86.275 *L 0.00282 *D OAI22X1

*CAP
1 *384:1 2.50744e-05
2 *384:2 2.50744e-05
3 *384:3 0.000226941
4 *384:4 0.000428666
5 *384:5 2.50744e-05
6 *384:6 0.000201725
7 *384:7 2.50744e-05
8 *384:8 0.000351041
9 *384:10 0.000351041
10 *384:11 0.000411689
11 *384:12 0.000201725
12 *384:13 0.000209964
13 *384:14 0.000125372
14 *384:15 2.00855e-05
15 *384:16 0.000125372
16 *384:17 2.00855e-05
17 *384:18 0.000201725
18 *384:20 0.000432054
19 *384:22 0.000230329
20 *384:24 0.000341454
21 *384:25 0.000341454
22 *384:26 0.000142556
23 *384:27 0.000529495
24 *384:29 0.000386939
25 *384:31 0.000287851
26 *384:32 0.000381501
27 *384:33 2.00855e-05
28 *384:34 0.000113735
29 *384:35 0.000598552
30 *384:36 0.000142556
31 *384:38 0.000598552
32 *384:39 0.000142556
33 *384:40 0.000591423
34 *384:41 0.000341454
35 *384:42 0.00061417
36 *384:44 0.000341454
37 *384:45 2.2747e-05
38 *384:48 0.000433434
39 *384:49 0.000433434
40 *384:50 0.000363953
41 *384:51 0.000363953
42 *384:52 2.06397e-05
43 *384:53 0.000598552
44 *384:54 0.00112689
45 *384:55 0.00022747
46 *384:56 0.00054898
47 *384:58 0.00102275
48 *384:59 0.000744254
49 *384:61 0.000795284
50 *384:62 2.06397e-05
51 *384:63 0.000230975
52 *384:64 0.000513279
53 *384:65 0.000122284
54 *384:66 2.06397e-05
55 *384:67 0.000146029
56 *384:68 0.000194705
57 *384:69 6.11421e-05
58 *384:70 6.11421e-05
59 *384:72 0.000243381
60 *384:73 0.000194705
61 *384:74 0.0003784
62 *384:77 9.73524e-05
63 *384:78 0.000230975
64 *384:80 0.000567599
65 *384:82 0.0011478
66 *384:84 0.000230975
67 *384:86 0.0001892
68 *384:88 0.0011478
69 *384:90 2.03807e-05
70 *384:92 2.03807e-05

*RES
1 *384:93 *1179:B1 1.4
2 *384:92 *384:93 1.4
3 *384:90 *384:92 0.124283
4 *384:88 *1181:B1 1.4
5 *384:86 *384:90 1.4
6 *384:84 *1354:B1 1.4
7 *384:82 *384:88 5.59278
8 *384:80 *1205:B 1.4
9 *384:80 *384:86 1.11854
10 *384:79 *1180:A1 1.4
11 *384:78 *384:84 1.11854
12 *384:78 *1352:B1 1.4
13 *384:77 *384:82 1.4
14 *384:75 *1206:B 1.4
15 *384:74 *384:80 2.23709
16 *384:73 *384:79 1.4
17 *384:72 *384:78 1.4
18 *384:72 *384:77 0.497131
19 *384:71 *1133:A1 1.4
20 *384:70 *384:75 1.4
21 *384:69 *384:74 1.4
22 *384:68 *384:73 0.994261
23 *384:67 *384:72 0.745696
24 *384:66 *384:71 1.4
25 *384:65 *384:70 0.372849
26 *384:65 *384:69 0.372849
27 *384:64 *384:68 1.4
28 *384:63 *384:67 1.4
29 *384:62 *384:66 0.124283
30 *384:61 *384:65 1.4
31 *384:59 *384:64 2.48565
32 *384:59 *384:63 1.11854
33 *384:58 *384:62 1.4
34 *384:58 *384:61 4.34992
35 *384:57 *1353:B1 1.4
36 *384:56 *384:59 1.4
37 *384:55 *384:58 1.24284
38 *384:54 *384:57 1.4
39 *384:54 *384:56 2.98279
40 *384:53 *384:55 1.4
41 *384:53 *384:54 3.47993
42 *384:52 *384:53 0.124283
43 *384:51 *384:52 1.4
44 *384:50 *384:51 1.98854
45 *384:49 *384:50 1.4
46 *384:48 *384:49 2.60994
47 *384:45 *384:48 1.4
48 *384:44 *1183:A1 1.4
49 *384:42 *1213:Y 1.4
50 *384:42 *384:45 0.124284
51 *384:41 *384:44 2.11282
52 *384:40 *1182:A1 1.4
53 *384:40 *384:42 3.23137
54 *384:39 *384:41 1.4
55 *384:38 *384:40 1.4
56 *384:36 *384:39 0.869982
57 *384:35 *384:38 3.60421
58 *384:34 *1184:A1 1.4
59 *384:33 *384:36 1.4
60 *384:32 *384:35 1.4
61 *384:32 *384:34 0.621418
62 *384:31 *384:33 0.124283
63 *384:31 *384:32 1.61568
64 *384:29 *384:31 1.4
65 *384:28 *1185:A1 1.4
66 *384:27 *384:29 2.36138
67 *384:27 *384:28 1.4
68 *384:26 *384:27 0.869982
69 *384:25 *384:26 1.4
70 *384:24 *384:25 2.11282
71 *384:22 *384:24 1.4
72 *384:21 *1175:A0 1.4
73 *384:20 *384:22 1.24283
74 *384:20 *384:21 1.4
75 *384:18 *384:20 0.994263
76 *384:17 *1178:A1 1.4
77 *384:16 *384:18 1.4
78 *384:15 *384:17 0.124283
79 *384:14 *384:16 0.621443
80 *384:13 *384:15 1.4
81 *384:12 *384:14 1.4
82 *384:11 *384:13 1.11855
83 *384:11 *384:12 0.994263
84 *384:10 *384:11 1.4
85 *384:8 *384:10 1.74004
86 *384:7 *1176:A0 1.4
87 *384:6 *384:8 1.4
88 *384:5 *384:7 0.124289
89 *384:4 *384:6 0.994263
90 *384:4 *384:5 1.4
91 *384:3 *384:4 1.11855
92 *384:2 *384:3 1.4
93 *384:1 *384:2 0.124289
94 *1177:A0 *384:1 1.4
*END

*D_NET *385 0.00810989

*CONN
*I *1186:A1 I *C 40.745 73.805 *L 0.0028 *D AOI22X1
*I *1208:A I *C 21.605 68.295 *L 0.00567 *D AND2X6
*I *1133:C0 I *C 16.095 68.005 *L 0.00277 *D AOI221X1
*I *1206:A I *C 14.065 78.735 *L 0.004 *D CLKAND2X3
*I *1212:Y O *C 9.425 80.475 *L 0 *D CLKINVX2
*I *1174:A1 I *C 6.525 80.475 *L 0.0028 *D AOI22X1

*CAP
1 *385:2 0.00152835
2 *385:3 0.00152835
3 *385:4 0.000432194
4 *385:5 0.000432194
5 *385:6 2.06397e-05
6 *385:7 0.000412795
7 *385:9 0.000536633
8 *385:11 2.2747e-05
9 *385:12 0.000144478
10 *385:13 2.2747e-05
11 *385:14 0.000816306
12 *385:16 0.000963462
13 *385:17 0.000147155
14 *385:19 0.000163046
15 *385:20 0.000163046
16 *385:21 2.10222e-05
17 *385:22 2.10222e-05
18 *385:23 0.000163046
19 *385:24 0.000366853
20 *385:26 0.000203807

*RES
1 *385:28 *1174:A1 1.4
2 *385:26 *385:28 1.4
3 *385:25 *1212:Y 1.4
4 *385:24 *385:26 1.24283
5 *385:24 *385:25 1.4
6 *385:23 *385:24 0.994265
7 *385:22 *385:23 1.4
8 *385:21 *385:22 0.124283
9 *385:20 *385:21 1.4
10 *385:19 *385:20 0.994265
11 *385:17 *385:19 1.4
12 *385:16 *1206:A 1.4
13 *385:16 *385:17 0.869979
14 *385:14 *385:16 4.47421
15 *385:13 *1133:C0 1.4
16 *385:12 *385:14 1.4
17 *385:11 *385:13 0.124284
18 *385:9 *385:12 0.869982
19 *385:9 *385:11 1.4
20 *385:8 *1208:A 1.4
21 *385:7 *385:9 2.36138
22 *385:7 *385:8 1.4
23 *385:6 *385:7 0.124283
24 *385:5 *385:6 1.4
25 *385:4 *385:5 2.36139
26 *385:3 *385:4 1.4
27 *385:2 *385:3 8.07838
28 *385:1 *385:2 1.4
29 *1186:A1 *385:1 1.4
*END

*D_NET *386 0.00176862

*CONN
*I *1204:B I *C 35.815 49.735 *L 0.00171 *D NOR2XL
*I *950:A I *C 38.425 49.735 *L 0.00178 *D AND3X1
*I *1211:Y O *C 37.9275 47.415 *L 0 *D CLKINVX1
*I *1203:B I *C 36.685 52.345 *L 0.00172 *D AND2X1

*CAP
1 *386:2 2.52156e-05
2 *386:3 2.52156e-05
3 *386:4 7.52231e-05
4 *386:5 7.52231e-05
5 *386:6 0.000126078
6 *386:7 0.000151294
7 *386:8 7.56469e-05
8 *386:9 0.000301187
9 *386:10 5.04313e-05
10 *386:11 0.000125372
11 *386:12 0.000301187
12 *386:13 7.52231e-05
13 *386:14 0.000132721
14 *386:15 7.30143e-05
15 *386:16 7.52231e-05
16 *386:17 7.34938e-06
17 *386:18 7.30143e-05

*RES
1 *386:21 *1203:B 1.4
2 *386:18 *386:21 1.4
3 *386:17 *1211:Y 1.4
4 *386:16 *950:A 1.4
5 *386:15 *386:18 0.372848
6 *386:14 *386:17 0.0364294
7 *386:13 *386:16 0.372866
8 *386:12 *386:15 1.4
9 *386:11 *386:14 0.621443
10 *386:10 *386:13 1.4
11 *386:9 *386:12 1.49146
12 *386:8 *386:11 1.4
13 *386:8 *386:10 0.248566
14 *386:7 *386:9 1.4
15 *386:7 *386:8 0.124283
16 *386:6 *386:7 0.621414
17 *386:5 *386:6 1.4
18 *386:4 *386:5 0.372866
19 *386:3 *386:4 1.4
20 *386:2 *386:3 0.124283
21 *386:1 *386:2 1.4
22 *1204:B *386:1 1.4
*END

*D_NET *387 0.000774612

*CONN
*I *1061:B0 I *C 39.005 75.545 *L 0.00262 *D OAI22X1
*I *1210:Y O *C 37.9275 78.735 *L 0 *D INVX1

*CAP
1 *387:1 0.000256267
2 *387:2 0.000256267
3 *387:3 9.88161e-05
4 *387:4 9.88161e-05
5 *387:5 2.49191e-05
6 *387:6 3.22229e-05
7 *387:7 7.30386e-06

*RES
1 *387:7 *1210:Y 1.4
2 *387:6 *387:7 0.0364295
3 *387:5 *387:6 0.124289
4 *387:4 *387:5 1.4
5 *387:3 *387:4 0.497132
6 *387:2 *387:3 1.4
7 *387:1 *387:2 1.24283
8 *1061:B0 *387:1 1.4
*END

*D_NET *388 0.00085584

*CONN
*I *1142:A0 I *C 32.915 115.275 *L 0.00271 *D OAI21X1
*I *1209:Y O *C 33.8675 120.495 *L 0 *D INVX1

*CAP
1 *388:2 2.2014e-05
2 *388:3 2.2014e-05
3 *388:4 0.00035608
4 *388:5 0.00035608
5 *388:6 4.4028e-05
6 *388:7 4.4028e-05
7 *388:8 5.79823e-06
8 *388:9 5.79823e-06

*RES
1 *388:9 *1209:Y 1.4
2 *388:8 *388:9 0.0364278
3 *388:7 *388:8 1.4
4 *388:6 *388:7 0.248578
5 *388:5 *388:6 1.4
6 *388:4 *388:5 2.2371
7 *388:3 *388:4 1.4
8 *388:2 *388:3 0.124289
9 *388:1 *388:2 1.4
10 *1142:A0 *388:1 1.4
*END

*D_NET *389 0.0105552

*CONN
*I *1159:B I *C 24.215 86.275 *L 0.00171 *D NOR2XL
*I *1164:A I *C 38.135 91.205 *L 0.00263 *D NOR2X1
*I *1160:B I *C 49.155 91.495 *L 0.00171 *D NOR2XL
*I *1156:B I *C 22.765 91.495 *L 0.00171 *D NOR2XL
*I *1142:A1 I *C 32.625 114.985 *L 0.00274 *D OAI21X1
*I *1201:Y O *C 21.1075 104.835 *L 0 *D CLKINVX1

*CAP
1 *389:2 2.03807e-05
2 *389:3 2.03807e-05
3 *389:4 0.000357377
4 *389:5 0.000357377
5 *389:6 0.00115769
6 *389:7 0.00207606
7 *389:8 2.03807e-05
8 *389:9 0.000938753
9 *389:11 2.10222e-05
10 *389:12 2.49191e-05
11 *389:14 0.000903955
12 *389:15 2.49191e-05
13 *389:16 0.000924977
14 *389:17 0.000101904
15 *389:19 4.20444e-05
16 *389:20 0.000224188
17 *389:21 0.000101904
18 *389:22 0.000688315
19 *389:23 0.000224188
20 *389:25 0.000688315
21 *389:26 7.8486e-05
22 *389:28 0.00073451
23 *389:29 8.35529e-05
24 *389:30 0.00073451
25 *389:31 5.06688e-06

*RES
1 *389:31 *1201:Y 1.4
2 *389:30 *1142:A1 1.4
3 *389:29 *389:31 0.0364291
4 *389:28 *389:30 4.59848
5 *389:26 *389:29 0.497138
6 *389:25 *389:28 1.4
7 *389:24 *1156:B 1.4
8 *389:23 *389:26 1.4
9 *389:22 *389:25 3.60421
10 *389:21 *389:24 1.4
11 *389:20 *389:23 1.36711
12 *389:19 *389:22 1.4
13 *389:17 *389:21 0.621416
14 *389:16 *389:20 1.4
15 *389:16 *389:19 0.248565
16 *389:15 *1160:B 1.4
17 *389:14 *389:17 1.4
18 *389:14 *389:16 5.21987
19 *389:12 *389:15 0.124289
20 *389:11 *389:14 0.124283
21 *389:10 *1164:A 1.4
22 *389:9 *389:12 1.4
23 *389:8 *389:11 1.4
24 *389:7 *389:10 1.4
25 *389:7 *389:9 4.72275
26 *389:6 *389:8 0.124283
27 *389:6 *389:7 5.8413
28 *389:5 *389:6 1.4
29 *389:4 *389:5 2.11281
30 *389:3 *389:4 1.4
31 *389:2 *389:3 0.124283
32 *389:1 *389:2 1.4
33 *1159:B *389:1 1.4
*END

*D_NET *390 0.0359374

*CONN
*I *1148:A1 I *C 67.425 106.865 *L 0.00168 *D AO22XL
*I *1134:A0 I *C 79.895 104.835 *L 0.00157 *D AOI22XL
*I *1351:B1 I *C 74.095 104.545 *L 0.00171 *D AO22XL
*I *1141:A1 I *C 81.635 89.465 *L 0.0028 *D AOI22X1
*I *1140:A0 I *C 65.685 85.985 *L 0.00157 *D AOI22XL
*I *1146:A1 I *C 81.345 79.025 *L 0.0028 *D AOI22X1
*I *1057:A0 I *C 65.685 59.885 *L 0.00152 *D AOI32XL
*I *1189:B I *C 54.375 60.175 *L 0.00167 *D NAND2XL
*I *1188:B I *C 50.315 60.175 *L 0.00172 *D AND2X1
*I *1050:A1 I *C 35.235 75.545 *L 0.00278 *D AOI21X1
*I *1154:B I *C 18.995 78.735 *L 0.00284 *D NAND2BX1
*I *1135:A1 I *C 11.165 68.585 *L 0.0028 *D AOI22X1
*I *1208:Y O *C 19.575 67.715 *L 0 *D AND2X6
*I *1060:A1 I *C 10.295 85.985 *L 0.00268 *D AOI221X1
*I *1144:B0 I *C 9.715 106.865 *L 0.00159 *D AOI22XL
*I *1201:A I *C 20.735 104.835 *L 0.00273 *D CLKINVX1
*I *1139:B0 I *C 23.345 110.055 *L 0.00159 *D AOI22XL

*CAP
1 *390:1 0.000143341
2 *390:2 0.000143341
3 *390:3 0.000580503
4 *390:4 0.00108408
5 *390:5 0.000653685
6 *390:6 2.04773e-05
7 *390:7 0.000150113
8 *390:9 2.04773e-05
9 *390:10 0.00129966
10 *390:13 0.00152142
11 *390:15 0.00022176
12 *390:16 5.13916e-05
13 *390:17 0.00143758
14 *390:18 0.000665281
15 *390:19 0.00138619
16 *390:20 0.000665281
17 *390:21 7.26857e-05
18 *390:22 2.56958e-05
19 *390:23 0.00222224
20 *390:24 2.56958e-05
21 *390:26 0.00217368
22 *390:28 0.00102398
23 *390:29 2.412e-05
24 *390:31 0.0013791
25 *390:34 0.0016207
26 *390:37 0.00126558
27 *390:39 0.00136019
28 *390:40 0.00136019
29 *390:42 0.00139616
30 *390:43 0.00139616
31 *390:44 0.000793559
32 *390:45 0.000289675
33 *390:46 0.00061417
34 *390:47 4.20444e-05
35 *390:48 0.000122284
36 *390:49 0.000433434
37 *390:50 6.82411e-05
38 *390:51 0.000489137
39 *390:52 0.000122284
40 *390:53 0.000433434
41 *390:54 0.000165118
42 *390:55 0.000489137
43 *390:58 0.000165118
44 *390:59 0.000483511
45 *390:63 0.00196536
46 *390:65 0.00149914
47 *390:67 1.7287e-05
48 *390:68 3.53656e-05
49 *390:70 0.000636582
50 *390:71 3.53656e-05
51 *390:73 0.000724996
52 *390:75 8.84141e-05
53 *390:76 0.000138296
54 *390:78 0.000190157
55 *390:79 0.000138296
56 *390:80 0.000190157
57 *390:82 7.07313e-05
58 *390:83 7.07313e-05
59 *390:84 1.7287e-05
60 *390:85 1.7287e-05

*RES
1 *390:85 *1139:B0 1.4
2 *390:84 *390:85 0.124288
3 *390:83 *390:84 1.4
4 *390:82 *390:83 0.497134
5 *390:80 *390:82 1.4
6 *390:79 *1201:A 1.4
7 *390:78 *390:80 1.36716
8 *390:76 *390:79 0.994301
9 *390:75 *390:78 1.4
10 *390:74 *1144:B0 1.4
11 *390:73 *390:76 1.4
12 *390:73 *390:75 0.621418
13 *390:71 *390:74 1.4
14 *390:70 *390:73 4.47421
15 *390:69 *1060:A1 1.4
16 *390:68 *390:71 0.248567
17 *390:67 *390:70 1.4
18 *390:66 *390:69 1.4
19 *390:65 *390:68 1.4
20 *390:65 *390:67 0.124288
21 *390:63 *390:66 1.4
22 *390:63 *390:65 8.94839
23 *390:62 *1208:Y 1.4
24 *390:59 *390:63 2.8585
25 *390:58 *390:62 1.4
26 *390:57 *1135:A1 1.4
27 *390:56 *1154:B 1.4
28 *390:55 *390:59 1.4
29 *390:54 *390:58 0.994265
30 *390:53 *390:57 1.4
31 *390:52 *390:56 1.4
32 *390:51 *390:55 2.98279
33 *390:50 *390:54 1.4
34 *390:49 *390:53 2.60994
35 *390:48 *390:52 0.745699
36 *390:47 *390:51 1.4
37 *390:46 *390:50 0.372851
38 *390:46 *390:49 1.4
39 *390:45 *390:48 1.4
40 *390:45 *390:47 0.248565
41 *390:44 *390:46 2.98281
42 *390:44 *390:45 1.36712
43 *390:43 *390:44 1.4
44 *390:42 *390:43 7.70554
45 *390:40 *390:42 1.4
46 *390:40 *1050:A1 1.4
47 *390:39 *390:40 6.58698
48 *390:37 *390:39 1.4
49 *390:36 *1188:B 1.4
50 *390:34 *390:37 6.4627
51 *390:34 *390:36 1.4
52 *390:33 *1189:B 1.4
53 *390:31 *390:34 1.73996
54 *390:31 *390:33 1.4
55 *390:29 *1057:A0 1.4
56 *390:28 *390:31 4.84703
57 *390:27 *1146:A1 1.4
58 *390:26 *390:29 0.124284
59 *390:26 *390:28 1.4
60 *390:24 *390:27 1.4
61 *390:23 *390:26 11.0614
62 *390:23 *1140:A0 1.4
63 *390:22 *390:24 0.124283
64 *390:21 *390:23 0.372866
65 *390:20 *390:22 1.4
66 *390:19 *390:21 1.4
67 *390:18 *390:20 3.3558
68 *390:17 *390:19 6.58725
69 *390:17 *390:18 1.4
70 *390:16 *390:17 0.248566
71 *390:15 *390:16 1.4
72 *390:13 *390:15 1.1186
73 *390:13 *1141:A1 1.4
74 *390:10 *390:13 6.5873
75 *390:9 *1351:B1 1.4
76 *390:8 *1134:A0 1.4
77 *390:7 *390:10 1.4
78 *390:6 *390:9 0.124283
79 *390:5 *390:8 1.4
80 *390:5 *390:7 0.745697
81 *390:4 *390:6 1.4
82 *390:4 *390:5 2.48566
83 *390:3 *390:4 2.85851
84 *390:2 *390:3 1.4
85 *390:1 *390:2 0.869984
86 *1148:A1 *390:1 1.4
*END

*D_NET *391 0.0279895

*CONN
*I *1148:B1 I *C 67.135 107.155 *L 0.00171 *D AO22XL
*I *1351:A1 I *C 73.805 104.835 *L 0.00168 *D AO22XL
*I *1134:B0 I *C 78.735 104.835 *L 0.00159 *D AOI22XL
*I *1143:B1 I *C 79.605 96.715 *L 0.00171 *D AO22XL
*I *1163:B I *C 62.205 91.495 *L 0.00167 *D NAND2XL
*I *1140:B0 I *C 64.525 85.985 *L 0.00159 *D AOI22XL
*I *1169:B I *C 56.985 78.445 *L 0.00167 *D NAND2XL
*I *1170:B I *C 51.185 78.445 *L 0.00167 *D NAND2XL
*I *1200:Y O *C 43.645 79.025 *L 0 *D CLKINVX2
*I *1059:B1 I *C 30.885 96.425 *L 0.00268 *D AOI221X1
*I *1138:B1 I *C 31.175 104.545 *L 0.00171 *D AO22XL
*I *1145:B1 I *C 17.545 104.835 *L 0.00283 *D AOI22X1
*I *1058:A1 I *C 34.655 104.835 *L 0.00278 *D AOI21X1
*I *1147:B0 I *C 15.515 101.645 *L 0.00159 *D AOI22XL
*I *1136:B1 I *C 12.615 80.765 *L 0.00283 *D AOI22X1
*I *1060:B1 I *C 10.875 85.985 *L 0.00268 *D AOI221X1

*CAP
1 *391:1 0.000143341
2 *391:2 0.000143341
3 *391:3 0.000580503
4 *391:4 0.00100924
5 *391:5 0.000428736
6 *391:6 2.04773e-05
7 *391:7 2.04665e-05
8 *391:8 2.04773e-05
9 *391:9 0.000704128
10 *391:12 0.00105326
11 *391:13 7.70873e-05
12 *391:14 0.000369601
13 *391:15 7.70873e-05
14 *391:16 0.00115437
15 *391:18 0.00115437
16 *391:20 7.26857e-05
17 *391:21 0.000557257
18 *391:22 0.000341312
19 *391:23 0.000484572
20 *391:24 0.000341312
21 *391:25 0.000131274
22 *391:27 0.000761389
23 *391:29 2.42286e-05
24 *391:30 0.000630115
25 *391:31 2.42286e-05
26 *391:32 0.000629889
27 *391:34 0.000629889
28 *391:35 5.25118e-05
29 *391:36 0.000570918
30 *391:37 2.41743e-05
31 *391:38 0.0011512
32 *391:39 2.41743e-05
33 *391:40 2.52915e-05
34 *391:41 0.000632791
35 *391:43 2.52915e-05
36 *391:44 7.51296e-05
37 *391:46 0.00159519
38 *391:47 0.00152006
39 *391:49 0.00108698
40 *391:50 0.00111168
41 *391:51 2.49191e-05
42 *391:52 2.4704e-05
43 *391:53 2.49191e-05
44 *391:54 0.000670246
45 *391:56 0.000729593
46 *391:57 5.93466e-05
47 *391:58 0.000906888
48 *391:59 0.000308196
49 *391:60 4.4028e-05
50 *391:61 0.000968957
51 *391:62 0.000308196
52 *391:64 1.7287e-05
53 *391:65 0.000106097
54 *391:66 3.95644e-05
55 *391:68 1.7287e-05
56 *391:69 0.000208354
57 *391:70 3.95644e-05
58 *391:72 0.00130151
59 *391:74 2.03807e-05
60 *391:75 0.00109315
61 *391:76 2.03807e-05
62 *391:77 0.000224188
63 *391:79 0.000224188
64 *391:81 6.30666e-05
65 *391:82 0.000420444
66 *391:83 0.000122284
67 *391:84 0.000357377
68 *391:85 0.000122284
69 *391:87 2.10222e-05
70 *391:88 2.10222e-05

*RES
1 *391:88 *1060:B1 1.4
2 *391:87 *391:88 0.124283
3 *391:85 *391:87 1.4
4 *391:84 *1136:B1 1.4
5 *391:83 *391:85 0.745699
6 *391:82 *391:84 2.11281
7 *391:82 *391:83 1.4
8 *391:81 *391:82 0.372848
9 *391:79 *391:81 1.4
10 *391:78 *1147:B0 1.4
11 *391:77 *391:79 1.36711
12 *391:76 *391:78 1.4
13 *391:75 *391:77 1.4
14 *391:74 *391:76 0.124283
15 *391:72 *391:75 6.4627
16 *391:72 *391:74 1.4
17 *391:70 *1058:A1 1.4
18 *391:69 *391:72 1.24283
19 *391:68 *1145:B1 1.4
20 *391:66 *391:70 0.248566
21 *391:65 *391:69 1.4
22 *391:64 *391:68 0.124288
23 *391:63 *1138:B1 1.4
24 *391:62 *391:66 1.4
25 *391:61 *391:65 0.745701
26 *391:61 *391:64 1.4
27 *391:60 *391:63 1.4
28 *391:59 *391:62 1.74004
29 *391:58 *391:61 5.59284
30 *391:58 *391:60 0.248578
31 *391:57 *391:59 1.4
32 *391:56 *391:58 1.4
33 *391:56 *391:57 0.37285
34 *391:54 *391:56 3.35579
35 *391:53 *1059:B1 1.4
36 *391:52 *391:54 1.4
37 *391:51 *391:53 0.124289
38 *391:50 *391:52 0.124283
39 *391:50 *391:51 1.4
40 *391:49 *391:50 5.46845
41 *391:47 *391:49 1.4
42 *391:46 *1200:Y 1.4
43 *391:46 *391:47 7.58161
44 *391:44 *391:46 0.372863
45 *391:43 *1170:B 1.4
46 *391:41 *391:44 1.4
47 *391:40 *391:43 0.124286
48 *391:39 *1169:B 1.4
49 *391:38 *391:41 3.23135
50 *391:38 *391:40 1.4
51 *391:37 *391:39 0.124286
52 *391:36 *391:38 2.48566
53 *391:36 *391:37 1.4
54 *391:35 *391:36 0.248566
55 *391:34 *391:35 1.4
56 *391:32 *391:34 3.2315
57 *391:31 *1140:B0 1.4
58 *391:30 *391:32 1.4
59 *391:29 *391:31 0.124289
60 *391:27 *391:30 2.98293
61 *391:27 *391:29 1.4
62 *391:26 *1163:B 1.4
63 *391:25 *391:27 0.621444
64 *391:24 *391:26 1.4
65 *391:23 *391:25 1.4
66 *391:22 *391:24 1.61575
67 *391:21 *391:23 2.48577
68 *391:21 *391:22 1.4
69 *391:20 *391:21 0.372866
70 *391:18 *391:20 1.4
71 *391:17 *1143:B1 1.4
72 *391:16 *391:18 5.4687
73 *391:15 *391:17 1.4
74 *391:14 *391:16 1.4
75 *391:13 *391:15 0.372849
76 *391:12 *391:14 1.86433
77 *391:12 *391:13 1.4
78 *391:9 *391:12 3.48008
79 *391:9 *1134:B0 1.4
80 *391:8 *1351:A1 1.4
81 *391:7 *391:9 0.124289
82 *391:6 *391:8 0.124283
83 *391:5 *391:7 1.4
84 *391:4 *391:6 1.4
85 *391:4 *391:5 2.11281
86 *391:3 *391:4 2.85851
87 *391:2 *391:3 1.4
88 *391:1 *391:2 0.869984
89 *1148:B1 *391:1 1.4
*END

*D_NET *392 0.00399506

*CONN
*I *1061:B1 I *C 39.295 75.835 *L 0.00282 *D OAI22X1
*I *1207:Y O *C 41.615 78.155 *L 0 *D NAND2X1
*I *1200:A I *C 43.065 78.735 *L 0.00521 *D CLKINVX2
*I *1161:B I *C 54.085 83.665 *L 0.00171 *D NOR2XL

*CAP
1 *392:1 2.56639e-05
2 *392:2 2.56639e-05
3 *392:3 0.000170367
4 *392:4 0.000170367
5 *392:5 0.000230975
6 *392:6 0.000230975
7 *392:7 2.43381e-05
8 *392:8 2.43381e-05
9 *392:9 5.02106e-05
10 *392:10 5.02106e-05
11 *392:12 0.00012352
12 *392:13 0.00012352
13 *392:14 0.000423624
14 *392:15 0.000423624
15 *392:17 0.000948833
16 *392:18 0.000948833

*RES
1 *392:19 *1161:B 1.4
2 *392:18 *392:19 1.4
3 *392:17 *392:18 4.72279
4 *392:15 *392:17 1.4
5 *392:14 *1200:A 1.4
6 *392:14 *392:15 2.11291
7 *392:13 *392:14 1.4
8 *392:12 *392:13 0.621414
9 *392:10 *392:12 1.4
10 *392:9 *1207:Y 1.4
11 *392:9 *392:10 0.248574
12 *392:8 *392:9 1.4
13 *392:7 *392:8 0.124283
14 *392:6 *392:7 1.4
15 *392:5 *392:6 1.11854
16 *392:4 *392:5 1.4
17 *392:3 *392:4 0.869979
18 *392:2 *392:3 1.4
19 *392:1 *392:2 0.124283
20 *1061:B1 *392:1 1.4
*END

*D_NET *393 0.00451126

*CONN
*I *1158:B I *C 31.465 89.175 *L 0.00175 *D NOR2BXL
*I *1132:A1 I *C 29.435 81.055 *L 0.00274 *D OAI21X1
*I *1122:A1 I *C 25.665 81.055 *L 0.00274 *D OAI21X1
*I *1137:A1 I *C 21.895 78.445 *L 0.00274 *D OAI21X1
*I *1199:Y O *C 21.315 85.695 *L 0 *D CLKINVX2

*CAP
1 *393:2 9.88161e-05
2 *393:3 9.88161e-05
3 *393:4 0.000672815
4 *393:5 0.000672815
5 *393:6 0.000271744
6 *393:7 0.000586412
7 *393:8 2.49191e-05
8 *393:9 0.000559236
9 *393:10 2.49191e-05
10 *393:11 2.10222e-05
11 *393:12 0.000264949
12 *393:14 2.10222e-05
13 *393:15 0.000210222
14 *393:16 2.03807e-05
15 *393:18 0.000210222
16 *393:19 0.000315333
17 *393:20 2.03807e-05
18 *393:21 0.000315333
19 *393:22 2.03807e-05
20 *393:23 4.07614e-05
21 *393:25 4.07614e-05

*RES
1 *393:27 *1199:Y 1.4
2 *393:25 *393:27 1.4
3 *393:24 *1137:A1 1.4
4 *393:23 *393:25 0.248566
5 *393:22 *393:24 1.4
6 *393:21 *393:23 1.4
7 *393:20 *393:22 0.124283
8 *393:19 *393:21 1.86424
9 *393:18 *393:20 1.4
10 *393:16 *393:19 1.4
11 *393:15 *393:18 1.24283
12 *393:14 *1122:A1 1.4
13 *393:12 *393:16 0.124283
14 *393:12 *393:15 1.4
15 *393:11 *393:14 0.124283
16 *393:10 *1132:A1 1.4
17 *393:9 *393:12 1.4914
18 *393:9 *393:11 1.4
19 *393:8 *393:10 0.124289
20 *393:7 *393:9 1.61568
21 *393:7 *393:8 1.4
22 *393:6 *393:7 1.36711
23 *393:5 *393:6 1.4
24 *393:4 *393:5 3.3558
25 *393:3 *393:4 1.4
26 *393:2 *393:3 0.497132
27 *393:1 *393:2 1.4
28 *1158:B *393:1 1.4
*END

*D_NET *394 0.017074

*CONN
*I *1167:B I *C 52.925 81.055 *L 0.00172 *D AND2X1
*I *1168:B I *C 56.115 75.835 *L 0.00167 *D NAND2XL
*I *1171:B I *C 56.405 83.665 *L 0.00172 *D AND2X1
*I *1199:A I *C 20.735 85.985 *L 0.00521 *D CLKINVX2
*I *1166:B I *C 57.855 86.275 *L 0.00172 *D AND2X1
*I *1157:B I *C 18.995 101.935 *L 0.00167 *D NAND2XL
*I *1139:A0 I *C 24.505 110.055 *L 0.00157 *D AOI22XL
*I *1144:A0 I *C 10.875 106.865 *L 0.00157 *D AOI22XL
*I *1155:B I *C 28.855 114.985 *L 0.00167 *D NAND2XL
*I *1206:Y O *C 15.515 79.025 *L 0 *D CLKAND2X3
*I *1136:A1 I *C 13.195 80.475 *L 0.0028 *D AOI22X1

*CAP
1 *394:2 0.000288803
2 *394:3 0.000288803
3 *394:4 0.000483648
4 *394:5 4.84572e-05
5 *394:6 0.000435191
6 *394:7 2.62548e-05
7 *394:9 2.62548e-05
8 *394:10 0.0001696
9 *394:11 0.000363429
10 *394:12 0.000218057
11 *394:14 2.42286e-05
12 *394:15 0.0029811
13 *394:16 0.000131274
14 *394:17 0.00306262
15 *394:18 0.000131274
16 *394:20 8.15229e-05
17 *394:23 0.00117724
18 *394:25 0.00146456
19 *394:26 2.10222e-05
20 *394:27 0.000515785
21 *394:28 4.07614e-05
22 *394:29 0.000183426
23 *394:30 0.000207444
24 *394:31 0.000530485
25 *394:32 4.07614e-05
26 *394:33 0.000183426
27 *394:34 0.000300608
28 *394:35 0.000530485
29 *394:37 0.0003784
30 *394:38 0.000606997
31 *394:39 1.7287e-05
32 *394:41 0.0003784
33 *394:42 0.000306389
34 *394:44 1.7287e-05
35 *394:45 0.000101904
36 *394:46 0.000336298
37 *394:49 0.000264949
38 *394:50 0.000336298
39 *394:51 0.000105111
40 *394:52 0.000163046
41 *394:54 0.000105111

*RES
1 *394:55 *1136:A1 1.4
2 *394:54 *1206:Y 1.4
3 *394:52 *394:55 1.4
4 *394:51 *394:54 0.621413
5 *394:50 *1155:B 1.4
6 *394:49 *394:52 0.994265
7 *394:49 *394:51 1.4
8 *394:46 *394:50 2.11281
9 *394:45 *394:49 0.621416
10 *394:44 *1144:A0 1.4
11 *394:43 *1139:A0 1.4
12 *394:42 *394:46 1.4
13 *394:41 *394:45 1.4
14 *394:39 *394:44 0.124288
15 *394:38 *394:43 1.4
16 *394:38 *394:42 1.8643
17 *394:37 *394:41 2.23709
18 *394:36 *1157:B 1.4
19 *394:35 *394:39 1.4
20 *394:34 *394:38 2.11282
21 *394:33 *394:37 1.4
22 *394:32 *394:36 1.4
23 *394:31 *394:35 3.72851
24 *394:30 *394:34 1.4
25 *394:29 *394:33 1.11855
26 *394:28 *394:32 0.248566
27 *394:27 *394:31 1.4
28 *394:27 *394:30 1.49145
29 *394:26 *394:29 1.4
30 *394:25 *394:28 1.4
31 *394:25 *394:27 1.98856
32 *394:23 *394:26 0.124283
33 *394:23 *394:25 6.83555
34 *394:21 *1166:B 1.4
35 *394:20 *394:23 1.4
36 *394:19 *1199:A 1.4
37 *394:18 *394:21 1.4
38 *394:17 *394:20 0.497132
39 *394:17 *394:19 1.4
40 *394:16 *394:18 0.621444
41 *394:15 *394:17 15.2869
42 *394:14 *394:16 1.4
43 *394:12 *394:15 1.4
44 *394:12 *394:14 0.124289
45 *394:11 *1171:B 1.4
46 *394:11 *394:12 0.99431
47 *394:10 *394:11 0.870021
48 *394:9 *394:10 1.4
49 *394:7 *394:9 0.124289
50 *394:6 *1168:B 1.4
51 *394:5 *394:7 1.4
52 *394:4 *394:6 2.23715
53 *394:4 *394:5 0.248577
54 *394:3 *394:4 1.4
55 *394:2 *394:3 1.36718
56 *394:1 *394:2 1.4
57 *1167:B *394:1 1.4
*END

*D_NET *395 0.0263625

*CONN
*I *1146:B1 I *C 80.765 78.735 *L 0.00283 *D AOI22X1
*I *1141:B1 I *C 82.215 89.175 *L 0.00283 *D AOI22X1
*I *1143:A1 I *C 79.895 96.425 *L 0.00168 *D AO22XL
*I *1162:B I *C 73.225 91.495 *L 0.00167 *D NAND2XL
*I *1165:B I *C 60.465 86.275 *L 0.00172 *D AND2X1
*I *1343:AN I *C 48.285 83.375 *L 0.00173 *D NOR2BX2
*I *1187:B I *C 56.985 81.055 *L 0.00167 *D NAND2XL
*I *1059:A1 I *C 31.465 96.425 *L 0.00268 *D AOI221X1
*I *1138:A1 I *C 31.465 104.835 *L 0.00168 *D AO22XL
*I *1145:A1 I *C 18.125 105.125 *L 0.0028 *D AOI22X1
*I *1205:Y O *C 14.645 83.955 *L 0 *D CLKAND2X2
*I *1147:A0 I *C 14.355 101.645 *L 0.00157 *D AOI22XL
*I *1135:B1 I *C 10.585 68.295 *L 0.00283 *D AOI22X1

*CAP
1 *395:2 5.13916e-05
2 *395:3 5.13916e-05
3 *395:4 0.000887042
4 *395:5 0.0011088
5 *395:6 0.00022176
6 *395:7 7.70873e-05
7 *395:8 0.000128479
8 *395:9 7.70873e-05
9 *395:10 0.000729264
10 *395:12 0.000394241
11 *395:13 0.00170349
12 *395:15 0.000394241
13 *395:16 2.42286e-05
14 *395:17 0.0011027
15 *395:19 2.42286e-05
16 *395:20 0.000411886
17 *395:22 0.000411886
18 *395:23 5.25096e-05
19 *395:24 0.000393822
20 *395:25 4.84572e-05
21 *395:26 0.000341312
22 *395:27 4.84572e-05
23 *395:28 0.000290743
24 *395:30 0.000290743
25 *395:31 0.000766708
26 *395:32 2.62548e-05
27 *395:33 0.0022227
28 *395:34 0.000193829
29 *395:36 0.00148224
30 *395:37 0.000193829
31 *395:39 0.00112136
32 *395:41 0.00183631
33 *395:42 0.00073473
34 *395:43 4.94081e-05
35 *395:44 1.97822e-05
36 *395:45 4.4028e-05
37 *395:46 4.94081e-05
38 *395:47 0.000849509
39 *395:48 4.4028e-05
40 *395:50 0.000902557
41 *395:54 5.30485e-05
42 *395:57 0.00015884
43 *395:58 0.00015884
44 *395:59 0.000183426
45 *395:60 0.000183426
46 *395:61 8.40888e-05
47 *395:62 0.00136644
48 *395:63 2.03807e-05
49 *395:64 0.00140849
50 *395:65 2.03807e-05
51 *395:67 0.000126133
52 *395:69 2.03807e-05
53 *395:71 2.03807e-05
54 *395:72 0.00102308
55 *395:73 0.00102308
56 *395:74 0.000309596
57 *395:75 0.000309596
58 *395:76 4.54941e-05
59 *395:77 4.54941e-05

*RES
1 *395:77 *1135:B1 1.4
2 *395:76 *395:77 0.248567
3 *395:75 *395:76 1.4
4 *395:74 *395:75 1.86425
5 *395:73 *395:74 1.4
6 *395:72 *395:73 5.71703
7 *395:71 *395:72 1.4
8 *395:69 *395:71 0.124283
9 *395:68 *1147:A0 1.4
10 *395:67 *395:69 1.4
11 *395:65 *395:68 1.4
12 *395:64 *395:67 0.745696
13 *395:64 *1205:Y 1.4
14 *395:63 *395:65 0.124283
15 *395:62 *395:64 7.58124
16 *395:62 *395:63 1.4
17 *395:61 *395:62 0.497131
18 *395:60 *395:61 1.4
19 *395:59 *395:60 1.11855
20 *395:58 *395:59 1.4
21 *395:57 *395:58 0.994274
22 *395:54 *395:57 1.4
23 *395:53 *1145:A1 1.4
24 *395:51 *1138:A1 1.4
25 *395:50 *395:54 0.372851
26 *395:50 *395:53 1.4
27 *395:49 *1059:A1 1.4
28 *395:48 *395:51 1.4
29 *395:47 *395:50 5.46856
30 *395:46 *395:49 1.4
31 *395:45 *395:48 0.248578
32 *395:44 *395:47 1.4
33 *395:43 *395:46 0.248566
34 *395:42 *395:45 1.4
35 *395:42 *395:44 0.124283
36 *395:41 *395:43 1.4
37 *395:41 *395:42 3.60437
38 *395:39 *395:41 5.59299
39 *395:37 *1187:B 1.4
40 *395:36 *395:39 1.4
41 *395:35 *1343:AN 1.4
42 *395:34 *395:37 0.99431
43 *395:33 *395:36 7.45697
44 *395:33 *395:35 1.4
45 *395:32 *395:34 1.4
46 *395:31 *395:33 3.60429
47 *395:31 *395:32 0.124289
48 *395:30 *395:31 1.4
49 *395:28 *395:30 1.49146
50 *395:27 *1165:B 1.4
51 *395:26 *395:28 1.4
52 *395:25 *395:27 0.248577
53 *395:24 *395:26 1.61575
54 *395:24 *395:25 1.4
55 *395:23 *395:24 0.248577
56 *395:22 *395:23 1.4
57 *395:20 *395:22 2.11291
58 *395:19 *1162:B 1.4
59 *395:17 *395:20 1.4
60 *395:16 *395:19 0.124289
61 *395:15 *1143:A1 1.4
62 *395:13 *395:17 5.22013
63 *395:13 *395:16 1.4
64 *395:12 *395:15 1.98862
65 *395:11 *1141:B1 1.4
66 *395:10 *395:13 2.85861
67 *395:10 *395:12 1.4
68 *395:9 *395:11 1.4
69 *395:8 *395:10 0.621414
70 *395:7 *395:9 0.372849
71 *395:6 *395:8 1.4
72 *395:5 *395:7 1.4
73 *395:5 *395:6 1.1186
74 *395:4 *395:5 4.47439
75 *395:3 *395:4 1.4
76 *395:2 *395:3 0.248566
77 *395:1 *395:2 1.4
78 *1146:B1 *395:1 1.4
*END

*D_NET *396 0.015093

*CONN
*I *1000:A0 I *C 28.855 86.275 *L 0.00265 *D OAI22X1
*I *1027:A I *C 29.145 99.615 *L 0.00162 *D NOR2XL
*I *1022:B0 I *C 28.275 70.325 *L 0.00262 *D OAI22X1
*I *1198:Y O *C 45.8825 78.735 *L 0 *D CLKINVX1
*I *1046:A0 I *C 84.245 78.735 *L 0.00271 *D OAI21X1
*I *936:A I *C 48.285 78.445 *L 0.00173 *D OR2X1

*CAP
1 *396:2 2.4704e-05
2 *396:3 2.4704e-05
3 *396:4 0.00176925
4 *396:5 0.00114628
5 *396:6 0.000622977
6 *396:8 0.00150695
7 *396:9 0.00143283
8 *396:10 7.41121e-05
9 *396:11 2.49191e-05
10 *396:12 0.000768056
11 *396:13 3.17933e-05
12 *396:14 0.000768056
13 *396:15 0.000197632
14 *396:16 6.87422e-06
15 *396:18 0.00342083
16 *396:20 0.0032232
17 *396:21 2.49191e-05
18 *396:23 2.49191e-05

*RES
1 *396:23 *936:A 1.4
2 *396:22 *1046:A0 1.4
3 *396:21 *396:23 0.124289
4 *396:20 *396:22 1.4
5 *396:18 *396:21 1.4
6 *396:18 *396:20 15.4116
7 *396:16 *1198:Y 1.4
8 *396:15 *396:18 0.994263
9 *396:14 *1022:B0 1.4
10 *396:13 *396:16 0.0342866
11 *396:13 *396:15 1.4
12 *396:12 *396:14 3.7285
13 *396:11 *396:13 0.124289
14 *396:10 *396:12 1.4
15 *396:9 *396:11 1.4
16 *396:8 *396:10 0.372849
17 *396:8 *396:9 7.20841
18 *396:6 *396:8 1.4
19 *396:5 *1027:A 1.4
20 *396:4 *396:6 3.10722
21 *396:4 *396:5 5.71728
22 *396:3 *396:4 1.4
23 *396:2 *396:3 0.124283
24 *396:1 *396:2 1.4
25 *1000:A0 *396:1 1.4
*END

*D_NET *397 0.0117255

*CONN
*I *1187:A I *C 56.405 81.055 *L 0.00157 *D NAND2XL
*I *1167:A I *C 53.505 81.055 *L 0.00178 *D AND2X1
*I *1170:A I *C 50.605 78.445 *L 0.00157 *D NAND2XL
*I *1188:A I *C 50.895 60.175 *L 0.00178 *D AND2X1
*I *1198:A I *C 46.255 78.735 *L 0.00273 *D CLKINVX1
*I *947:B I *C 44.515 49.7075 *L 0.00178 *D AND3X1
*I *1204:Y O *C 35.525 50.025 *L 0 *D NOR2XL
*I *1021:B0 I *C 29.725 49.445 *L 0.00265 *D AOI22X1

*CAP
1 *397:1 2.42286e-05
2 *397:2 2.42286e-05
3 *397:3 0.000262548
4 *397:4 0.000516566
5 *397:5 2.42286e-05
6 *397:6 0.000254019
7 *397:7 2.42286e-05
8 *397:8 0.000174433
9 *397:10 0.000249191
10 *397:11 0.000395265
11 *397:12 7.47572e-05
12 *397:13 2.4704e-05
13 *397:14 0.000370561
14 *397:16 0.00169121
15 *397:17 4.98381e-05
16 *397:18 0.00255995
17 *397:19 4.98381e-05
18 *397:21 0.000868741
19 *397:23 0.000554744
20 *397:24 0.00133643
21 *397:25 5.23103e-05
22 *397:26 0.000781684
23 *397:27 5.23103e-05
24 *397:28 5.01487e-05
25 *397:30 2.50744e-05
26 *397:31 2.50744e-05
27 *397:32 0.000504313
28 *397:34 0.000504313
29 *397:35 0.000100297
30 *397:36 0.000100297

*RES
1 *397:36 *1021:B0 1.4
2 *397:35 *397:36 0.497154
3 *397:34 *397:35 1.4
4 *397:32 *397:34 2.48566
5 *397:31 *1204:Y 1.4
6 *397:30 *397:32 1.4
7 *397:28 *397:31 0.124289
8 *397:28 *397:30 0.124289
9 *397:27 *947:B 1.4
10 *397:26 *397:28 1.4
11 *397:25 *397:27 0.259292
12 *397:24 *397:26 3.85277
13 *397:24 *397:25 1.4
14 *397:23 *397:24 2.73422
15 *397:21 *397:23 1.4
16 *397:19 *1198:A 1.4
17 *397:18 *397:21 4.22565
18 *397:18 *1188:A 1.4
19 *397:17 *397:19 0.248578
20 *397:16 *397:18 8.20268
21 *397:14 *397:17 1.4
22 *397:13 *397:16 1.4
23 *397:12 *1170:A 1.4
24 *397:11 *397:14 1.86424
25 *397:11 *397:13 0.124283
26 *397:10 *397:12 0.372866
27 *397:10 *397:11 1.4
28 *397:8 *397:10 0.870021
29 *397:7 *1167:A 1.4
30 *397:6 *397:8 1.4
31 *397:5 *397:7 0.124289
32 *397:4 *397:6 1.24286
33 *397:4 *397:5 1.4
34 *397:3 *397:4 1.24289
35 *397:2 *397:3 1.4
36 *397:1 *397:2 0.124289
37 *1187:A *397:1 1.4
*END

*D_NET *398 0.00998484

*CONN
*I *1343:B I *C 48.865 83.665 *L 0.00538 *D NOR2BX2
*I *935:A I *C 48.575 81.055 *L 0.00173 *D OR2X1
*I *1031:A I *C 22.765 75.545 *L 0.00259 *D NOR3X1
*I *1197:Y O *C 25.0025 73.515 *L 0 *D CLKINVX1
*I *1026:B0 I *C 22.475 101.935 *L 0.00277 *D AOI21X1

*CAP
1 *398:1 0.000224272
2 *398:2 0.000224272
3 *398:3 2.4704e-05
4 *398:4 0.0018281
5 *398:6 0.00180339
6 *398:8 0.000454875
7 *398:9 0.000454875
8 *398:10 0.000181761
9 *398:11 0.000346878
10 *398:12 0.000181976
11 *398:13 0.000185758
12 *398:14 0.000181976
13 *398:15 2.2747e-05
14 *398:16 2.06397e-05
15 *398:18 2.2747e-05
16 *398:19 0.00190666
17 *398:20 6.27505e-06
18 *398:22 0.00190666
19 *398:23 6.27505e-06

*RES
1 *398:26 *1026:B0 1.4
2 *398:24 *398:26 1.4
3 *398:23 *1197:Y 1.4
4 *398:22 *398:24 1.4
5 *398:20 *398:23 0.0342851
6 *398:19 *398:22 11.1854
7 *398:18 *1031:A 1.4
8 *398:17 *398:20 1.4
9 *398:16 *398:19 1.4
10 *398:15 *398:18 0.124284
11 *398:14 *398:17 1.4
12 *398:13 *398:16 0.124283
13 *398:13 *398:15 1.4
14 *398:12 *398:14 0.994268
15 *398:11 *398:13 0.994265
16 *398:11 *398:12 1.4
17 *398:10 *398:11 0.994263
18 *398:9 *398:10 1.4
19 *398:8 *398:9 2.23715
20 *398:6 *398:8 1.4
21 *398:5 *935:A 1.4
22 *398:4 *398:6 9.07265
23 *398:4 *398:5 1.4
24 *398:3 *398:4 0.124283
25 *398:2 *398:3 1.4
26 *398:1 *398:2 1.1186
27 *1343:B *398:1 1.4
*END

*D_NET *399 0.0139717

*CONN
*I *1169:A I *C 56.405 78.445 *L 0.00157 *D NAND2XL
*I *1168:A I *C 55.535 75.835 *L 0.00157 *D NAND2XL
*I *1189:A I *C 53.795 60.175 *L 0.00157 *D NAND2XL
*I *1197:A I *C 25.375 73.515 *L 0.00273 *D CLKINVX1
*I *1023:A0 I *C 25.375 54.955 *L 0.00264 *D AOI22X1
*I *1203:Y O *C 37.845 52.925 *L 0 *D AND2X1
*I *1122:B0 I *C 25.085 80.765 *L 0.0028 *D OAI21X1

*CAP
1 *399:1 0.000217134
2 *399:2 0.000217134
3 *399:3 7.87677e-05
4 *399:4 7.87677e-05
5 *399:5 0.00127836
6 *399:7 0.00127836
7 *399:8 0.000157535
8 *399:9 0.00150668
9 *399:10 2.412e-05
10 *399:11 0.00134914
11 *399:12 2.412e-05
12 *399:13 0.000461951
13 *399:15 0.000461951
14 *399:16 0.000146029
15 *399:17 0.00103729
16 *399:18 0.000205311
17 *399:19 0.000891264
18 *399:20 0.000205311
19 *399:21 0.00145581
20 *399:22 0.000146029
21 *399:23 0.00198708
22 *399:24 2.2747e-05
23 *399:25 0.000146029
24 *399:26 0.000554015
25 *399:30 2.03807e-05
26 *399:32 2.03807e-05

*RES
1 *399:33 *1122:B0 1.4
2 *399:32 *399:33 1.4
3 *399:30 *399:32 0.124283
4 *399:29 *1203:Y 1.4
5 *399:26 *399:30 1.4
6 *399:25 *399:29 1.4
7 *399:24 *1023:A0 1.4
8 *399:23 *1197:A 1.4
9 *399:23 *399:26 3.10708
10 *399:22 *399:25 0.745696
11 *399:21 *399:24 0.124284
12 *399:21 *399:23 7.82986
13 *399:20 *399:22 1.4
14 *399:19 *399:21 1.4
15 *399:18 *399:20 0.994261
16 *399:17 *399:19 4.59846
17 *399:17 *399:18 1.4
18 *399:16 *399:17 0.745696
19 *399:15 *399:16 1.4
20 *399:13 *399:15 2.23709
21 *399:12 *1189:A 1.4
22 *399:11 *399:13 1.4
23 *399:10 *399:12 0.124284
24 *399:9 *399:11 6.83555
25 *399:9 *399:10 1.4
26 *399:8 *399:9 0.745697
27 *399:7 *399:8 1.4
28 *399:5 *399:7 6.58703
29 *399:5 *1168:A 1.4
30 *399:4 *399:5 1.4
31 *399:3 *399:4 0.372849
32 *399:2 *399:3 1.4
33 *399:1 *399:2 1.11855
34 *1169:A *399:1 1.4
*END

*D_NET *400 0.0208236

*CONN
*I *1011:A0 I *C 85.405 86.275 *L 0.00267 *D OAI211X1
*I *1085:A I *C 82.505 106.865 *L 0.00162 *D NOR2XL
*I *1002:A0 I *C 64.525 81.055 *L 0.00267 *D OAI211X1
*I *1161:A I *C 53.795 83.955 *L 0.00162 *D NOR2XL
*I *934:A I *C 52.055 83.665 *L 0.00173 *D OR2X1
*I *1192:Y O *C 51.3925 80.765 *L 0 *D CLKINVX1
*I *1160:A I *C 48.865 91.205 *L 0.00162 *D NOR2XL
*I *1000:B0 I *C 27.695 85.985 *L 0.00262 *D OAI22X1
*I *1004:B0 I *C 23.055 104.835 *L 0.00262 *D OAI22X1

*CAP
1 *400:2 0.000256958
2 *400:3 0.000256958
3 *400:4 0.00173861
4 *400:5 0.00171397
5 *400:6 2.46401e-05
6 *400:8 0.00143591
7 *400:9 0.00143591
8 *400:10 0.000121143
9 *400:11 0.000121143
10 *400:12 0.000183783
11 *400:13 0.00115521
12 *400:14 0.000290743
13 *400:15 0.00112818
14 *400:16 0.000290743
15 *400:17 4.84572e-05
16 *400:18 0.000156753
17 *400:20 4.84572e-05
18 *400:21 7.47572e-05
19 *400:23 0.000124595
20 *400:25 0.000249191
21 *400:26 0.00024704
22 *400:27 0.000199352
23 *400:28 0.00024704
24 *400:29 4.94081e-05
25 *400:30 0.000224272
26 *400:31 4.94081e-05
27 *400:32 0.000224272
28 *400:33 6.87422e-06
29 *400:34 2.4704e-05
30 *400:35 6.87422e-06
31 *400:36 0.0018281
32 *400:38 0.000473462
33 *400:39 0.00180339
34 *400:40 0.000473462
35 *400:41 2.49191e-05
36 *400:43 0.0016963
37 *400:44 0.00167138
38 *400:46 0.000306747
39 *400:47 0.000306747
40 *400:48 5.1861e-05
41 *400:49 5.1861e-05

*RES
1 *400:49 *1004:B0 1.4
2 *400:48 *400:49 0.372863
3 *400:47 *400:48 1.4
4 *400:46 *400:47 1.98857
5 *400:44 *400:46 1.4
6 *400:43 *1000:B0 1.4
7 *400:43 *400:44 8.45161
8 *400:41 *400:43 0.124289
9 *400:40 *1160:A 1.4
10 *400:39 *400:41 1.4
11 *400:38 *400:40 2.36149
12 *400:36 *400:39 9.07265
13 *400:36 *400:38 1.4
14 *400:35 *1192:Y 1.4
15 *400:34 *400:36 0.124283
16 *400:33 *400:35 0.0342866
17 *400:32 *400:34 1.4
18 *400:31 *400:33 1.4
19 *400:30 *400:32 1.1186
20 *400:29 *400:31 0.248566
21 *400:28 *400:30 1.4
22 *400:27 *400:29 1.4
23 *400:26 *400:28 1.24283
24 *400:25 *400:27 0.99431
25 *400:25 *400:26 1.4
26 *400:23 *400:25 0.248578
27 *400:23 *934:A 1.4
28 *400:21 *400:23 0.372866
29 *400:20 *1161:A 1.4
30 *400:18 *400:21 1.4
31 *400:17 *400:20 0.248577
32 *400:16 *1002:A0 1.4
33 *400:15 *400:18 0.74573
34 *400:15 *400:17 1.4
35 *400:14 *400:16 1.49146
36 *400:13 *400:15 4.59868
37 *400:13 *400:14 1.4
38 *400:12 *400:13 0.870021
39 *400:11 *400:12 1.4
40 *400:10 *400:11 0.621444
41 *400:9 *400:10 1.4
42 *400:8 *400:9 6.8358
43 *400:6 *400:8 1.4
44 *400:5 *1085:A 1.4
45 *400:4 *400:6 0.124289
46 *400:4 *400:5 8.8245
47 *400:3 *400:4 1.4
48 *400:2 *400:3 1.24283
49 *400:1 *400:2 1.4
50 *1011:A0 *400:1 1.4
*END

*D_NET *401 0.0228189

*CONN
*I *1043:A0 I *C 76.995 94.105 *L 0.00264 *D AOI22X1
*I *1039:A1 I *C 75.255 96.135 *L 0.00171 *D AOI22XL
*I *1162:A I *C 72.645 91.495 *L 0.00157 *D NAND2XL
*I *1171:A I *C 56.985 83.665 *L 0.00178 *D AND2X1
*I *1192:A I *C 51.765 80.765 *L 0.00273 *D CLKINVX1
*I *1057:A2 I *C 66.265 59.595 *L 0.0017 *D AOI32XL
*I *1196:Y O *C 26.245 49.155 *L 0 *D AND2X1
*I *949:B I *C 44.515 52.3725 *L 0.00178 *D AND3X1
*I *1023:B0 I *C 24.215 54.665 *L 0.00265 *D AOI22X1
*I *1344:A0N I *C 23.635 68.295 *L 0.00168 *D OAI2BB1X2

*CAP
1 *401:2 7.87643e-05
2 *401:3 7.87643e-05
3 *401:4 2.42286e-05
4 *401:5 2.42286e-05
5 *401:6 7.87643e-05
6 *401:7 0.000262548
7 *401:8 0.000145371
8 *401:9 0.000183783
9 *401:10 0.000145371
10 *401:11 0.000242286
11 *401:13 0.000896457
12 *401:14 5.25096e-05
13 *401:15 0.000654172
14 *401:16 5.25096e-05
15 *401:17 0.00144401
16 *401:19 0.00147027
17 *401:21 0.000242286
18 *401:22 2.62548e-05
19 *401:23 0.000242286
20 *401:25 2.62548e-05
21 *401:27 0.000496515
22 *401:28 0.00176168
23 *401:29 0.00047026
24 *401:30 0.0017858
25 *401:32 0.00112686
26 *401:33 2.412e-05
27 *401:35 0.00112686
28 *401:36 0.000840189
29 *401:37 0.000615934
30 *401:38 0.000840189
31 *401:39 0.000641598
32 *401:40 2.412e-05
33 *401:41 0.00148462
34 *401:42 2.56639e-05
35 *401:43 2.412e-05
36 *401:44 0.00156903
37 *401:45 4.86762e-05
38 *401:47 0.000301777
39 *401:48 8.44081e-05
40 *401:49 4.86762e-05
41 *401:50 0.000301777
42 *401:51 0.00022747
43 *401:52 2.65489e-06
44 *401:54 0.00022747
45 *401:55 2.65489e-06
46 *401:56 6.19192e-05
47 *401:58 0.000103199
48 *401:59 6.82411e-05
49 *401:60 4.12795e-05
50 *401:61 6.82411e-05
51 *401:62 0.00100087
52 *401:64 0.00100087

*RES
1 *401:64 *1344:A0N 1.4
2 *401:62 *401:64 5.46848
3 *401:61 *1023:B0 1.4
4 *401:60 *401:62 1.4
5 *401:59 *401:61 0.372851
6 *401:58 *401:60 0.248566
7 *401:58 *401:59 1.4
8 *401:56 *401:58 0.372849
9 *401:55 *949:B 1.4
10 *401:54 *401:56 1.4
11 *401:52 *401:55 0.0128568
12 *401:51 *401:54 1.24284
13 *401:50 *1196:Y 1.4
14 *401:49 *401:52 1.4
15 *401:48 *401:51 1.4
16 *401:47 *401:50 1.49145
17 *401:45 *401:49 0.248565
18 *401:44 *401:48 0.497132
19 *401:44 *401:47 1.4
20 *401:43 *1057:A2 1.4
21 *401:42 *401:45 1.4
22 *401:41 *401:44 7.58124
23 *401:40 *401:43 0.124284
24 *401:39 *401:42 0.124283
25 *401:39 *401:41 1.4
26 *401:38 *401:40 1.4
27 *401:37 *401:39 2.98278
28 *401:36 *401:38 3.97705
29 *401:35 *401:37 1.4
30 *401:33 *401:36 1.4
31 *401:32 *401:35 5.59272
32 *401:31 *1192:A 1.4
33 *401:30 *401:33 0.124284
34 *401:30 *401:32 1.4
35 *401:29 *401:31 1.4
36 *401:28 *401:30 9.07274
37 *401:27 *401:29 2.23719
38 *401:27 *401:28 1.4
39 *401:25 *401:27 0.124289
40 *401:24 *1171:A 1.4
41 *401:23 *401:25 1.4
42 *401:22 *401:24 1.4
43 *401:21 *401:23 1.24289
44 *401:19 *401:22 0.124289
45 *401:19 *401:21 1.4
46 *401:18 *1162:A 1.4
47 *401:17 *401:19 6.83588
48 *401:16 *401:18 1.4
49 *401:15 *401:17 1.4
50 *401:14 *401:16 0.248577
51 *401:13 *401:15 3.3558
52 *401:13 *401:14 1.4
53 *401:11 *401:13 1.24289
54 *401:10 *1039:A1 1.4
55 *401:9 *401:11 1.4
56 *401:8 *401:10 0.745732
57 *401:7 *401:9 0.870021
58 *401:7 *401:8 1.4
59 *401:6 *401:7 0.372866
60 *401:5 *401:6 1.4
61 *401:4 *401:5 0.124289
62 *401:3 *401:4 1.4
63 *401:2 *401:3 0.372866
64 *401:1 *401:2 1.4
65 *1043:A0 *401:1 1.4
*END

*D_NET *402 0.0100884

*CONN
*I *1004:A0 I *C 24.215 104.545 *L 0.00265 *D OAI22X1
*I *1025:A I *C 37.845 104.835 *L 0.00162 *D NOR2XL
*I *1164:B I *C 38.425 91.205 *L 0.0028 *D NOR2X1
*I *1191:Y O *C 30.3875 83.955 *L 0 *D CLKINVX1
*I *1022:A0 I *C 27.115 70.615 *L 0.00265 *D OAI22X1

*CAP
1 *402:1 1.7287e-05
2 *402:2 1.7287e-05
3 *402:3 0.00100651
4 *402:4 0.00100651
5 *402:5 0.00111365
6 *402:7 0.00113857
7 *402:8 4.94081e-05
8 *402:9 2.49191e-05
9 *402:10 4.94081e-05
10 *402:11 0.000642305
11 *402:12 4.98381e-05
12 *402:13 0.000642305
13 *402:14 4.98381e-05
14 *402:15 0.000647896
15 *402:17 0.00184688
16 *402:18 7.30386e-06
17 *402:19 0.00119168
18 *402:21 0.000267719
19 *402:22 0.000267719
20 *402:23 2.56639e-05
21 *402:24 2.56639e-05

*RES
1 *402:24 *1022:A0 1.4
2 *402:23 *402:24 0.124283
3 *402:22 *402:23 1.4
4 *402:21 *402:22 1.36711
5 *402:19 *402:21 1.4
6 *402:18 *1191:Y 1.4
7 *402:17 *402:19 5.8414
8 *402:17 *402:18 0.0364295
9 *402:15 *402:17 3.23151
10 *402:14 *1164:B 1.4
11 *402:13 *402:15 1.4
12 *402:12 *402:14 0.248578
13 *402:11 *402:13 3.23136
14 *402:10 *402:12 1.4
15 *402:9 *402:11 1.4
16 *402:8 *402:10 0.248566
17 *402:7 *402:9 0.124289
18 *402:7 *402:8 1.4
19 *402:5 *402:7 5.59299
20 *402:5 *1025:A 1.4
21 *402:4 *402:5 1.4
22 *402:3 *402:4 5.84154
23 *402:2 *402:3 1.4
24 *402:1 *402:2 0.124288
25 *1004:A0 *402:1 1.4
*END

*D_NET *403 0.0199882

*CONN
*I *1049:A0 I *C 61.915 107.155 *L 0.00264 *D AOI22X1
*I *1163:A I *C 61.625 91.495 *L 0.00157 *D NAND2XL
*I *1165:A I *C 61.045 86.275 *L 0.00178 *D AND2X1
*I *1166:A I *C 58.435 86.275 *L 0.00178 *D AND2X1
*I *1191:A I *C 30.015 83.955 *L 0.00273 *D CLKINVX1
*I *1132:B0 I *C 28.855 80.765 *L 0.0028 *D OAI21X1
*I *1021:A0 I *C 28.565 49.735 *L 0.00264 *D AOI22X1
*I *1195:Y O *C 32.625 48.865 *L 0 *D NOR2X1
*I *937:A I *C 49.735 52.345 *L 0.00178 *D AND2X1

*CAP
1 *403:2 2.52392e-05
2 *403:3 2.52392e-05
3 *403:4 0.00127271
4 *403:5 0.00168459
5 *403:7 0.000411886
6 *403:8 5.25096e-05
7 *403:9 0.000288803
8 *403:10 2.42286e-05
9 *403:11 0.000341312
10 *403:12 2.42286e-05
11 *403:13 2.42286e-05
12 *403:14 0.000105019
13 *403:16 2.42286e-05
14 *403:17 0.000218057
15 *403:19 0.000218057
16 *403:20 0.00234932
17 *403:21 0.00244813
18 *403:23 9.88161e-05
19 *403:25 0.00027411
20 *403:26 0.00295866
21 *403:28 0.0027347
22 *403:29 0.000100863
23 *403:30 5.01487e-05
24 *403:31 0.000100863
25 *403:32 2.52156e-05
26 *403:33 2.50744e-05
27 *403:34 2.52156e-05
28 *403:35 2.50744e-05
29 *403:37 0.000226941
30 *403:39 0.00171466
31 *403:40 0.00148772
32 *403:41 0.000100297
33 *403:42 0.00020089
34 *403:43 0.000100297
35 *403:44 0.00020089

*RES
1 *403:44 *937:A 1.4
2 *403:43 *1195:Y 1.4
3 *403:42 *403:44 0.994305
4 *403:41 *403:43 0.497154
5 *403:40 *403:42 1.4
6 *403:39 *403:41 1.4
7 *403:39 *403:40 7.33269
8 *403:37 *403:39 1.11855
9 *403:36 *1021:A0 1.4
10 *403:35 *403:37 1.4
11 *403:34 *403:36 1.4
12 *403:33 *403:35 0.124289
13 *403:32 *403:34 0.124283
14 *403:31 *403:33 1.4
15 *403:30 *403:32 1.4
16 *403:29 *403:31 0.497132
17 *403:28 *403:30 0.248577
18 *403:28 *403:29 1.4
19 *403:26 *403:28 13.0498
20 *403:26 *1132:B0 1.4
21 *403:25 *403:26 1.36718
22 *403:23 *403:25 1.4
23 *403:22 *1191:A 1.4
24 *403:21 *403:23 0.497132
25 *403:21 *403:22 1.4
26 *403:20 *403:21 11.6827
27 *403:19 *403:20 1.4
28 *403:17 *403:19 1.1186
29 *403:16 *1166:A 1.4
30 *403:14 *403:17 1.4
31 *403:13 *403:16 0.124289
32 *403:12 *1165:A 1.4
33 *403:11 *403:14 0.497155
34 *403:11 *403:13 1.4
35 *403:10 *403:12 0.124289
36 *403:9 *403:11 1.1186
37 *403:9 *403:10 1.4
38 *403:8 *403:9 0.248577
39 *403:7 *403:8 1.4
40 *403:5 *403:7 2.11291
41 *403:5 *1163:A 1.4
42 *403:4 *403:5 6.71154
43 *403:3 *403:4 1.4
44 *403:2 *403:3 0.124283
45 *403:1 *403:2 1.4
46 *1049:A0 *403:1 1.4
*END

*D_NET *404 0.000817909

*CONN
*I *950:B I *C 39.295 49.7075 *L 0.00178 *D AND3X1
*I *941:B I *C 39.875 47.1525 *L 0.00178 *D AND3X1
*I *1190:Y O *C 41.1175 49.445 *L 0 *D CLKINVX1

*CAP
1 *404:1 2.16158e-06
2 *404:2 2.16158e-06
3 *404:3 5.04313e-05
4 *404:4 5.04313e-05
5 *404:5 5.01487e-05
6 *404:6 0.000223075
7 *404:7 0.000100863
8 *404:8 0.000172927
9 *404:9 0.000100863
10 *404:11 2.50744e-05
11 *404:12 3.24237e-05
12 *404:13 7.34938e-06

*RES
1 *404:13 *1190:Y 1.4
2 *404:12 *404:13 0.0364294
3 *404:11 *404:12 0.124289
4 *404:9 *404:11 1.4
5 *404:8 *941:B 1.4
6 *404:7 *404:9 0.497132
7 *404:6 *404:8 0.857162
8 *404:6 *404:7 1.4
9 *404:5 *404:6 0.248577
10 *404:4 *404:5 1.4
11 *404:3 *404:4 0.248566
12 *404:2 *404:3 1.4
13 *404:1 *404:2 0.0107145
14 *950:B *404:1 1.4
*END

*D_NET *405 0.000456647

*CONN
*I *1061:A1 I *C 39.875 75.835 *L 0.00277 *D OAI22X1
*I *1186:Y O *C 40.455 73.805 *L 0 *D AOI22X1

*CAP
1 *405:2 4.86762e-05
2 *405:3 4.86762e-05
3 *405:4 0.000179648
4 *405:5 0.000179648

*RES
1 *405:5 *1186:Y 1.4
2 *405:4 *405:5 0.869979
3 *405:3 *405:4 1.4
4 *405:2 *405:3 0.248565
5 *405:1 *405:2 1.4
6 *1061:A1 *405:1 1.4
*END

*D_NET *406 0.00101579

*CONN
*I *1121:A I *C 21.895 54.955 *L 0.0017 *D MXI2XL
*I *1185:Y O *C 22.475 49.155 *L 0 *D AOI22X1

*CAP
1 *406:1 0.00044708
2 *406:2 0.00044708
3 *406:3 4.07304e-05
4 *406:4 4.07304e-05
5 *406:5 2.00855e-05
6 *406:6 2.00855e-05

*RES
1 *406:6 *1185:Y 1.4
2 *406:5 *406:6 0.124283
3 *406:4 *406:5 1.4
4 *406:3 *406:4 0.248566
5 *406:2 *406:3 1.4
6 *406:1 *406:2 2.60995
7 *1121:A *406:1 1.4
*END

*D_NET *407 0.000681743

*CONN
*I *1121:B I *C 20.73 55.295 *L 0.00164 *D MXI2XL
*I *1184:Y O *C 16.965 54.375 *L 0 *D AOI22X1

*CAP
1 *407:1 3.9219e-07
2 *407:2 4.98082e-05
3 *407:3 4.9416e-05
4 *407:4 0.000268317
5 *407:5 0.000268317
6 *407:6 2.2747e-05
7 *407:7 2.2747e-05

*RES
1 *407:7 *1184:Y 1.4
2 *407:6 *407:7 0.124284
3 *407:5 *407:6 1.4
4 *407:4 *407:5 1.61568
5 *407:3 *407:4 1.4
6 *407:2 *407:3 0.269995
7 *407:1 *407:2 0.00214282
8 *1121:B *407:1 1.4
*END

*D_NET *408 0.00169926

*CONN
*I *1120:A I *C 14.065 54.955 *L 0.0017 *D MXI2XL
*I *1183:Y O *C 14.935 43.935 *L 0 *D AOI22X1

*CAP
1 *408:1 0.000788534
2 *408:2 0.000788534
3 *408:3 6.10956e-05
4 *408:4 6.10956e-05

*RES
1 *408:5 *1183:Y 1.4
2 *408:4 *408:5 1.4
3 *408:3 *408:4 0.372849
4 *408:2 *408:3 1.4
5 *408:1 *408:2 4.72277
6 *1120:A *408:1 1.4
*END

*D_NET *409 0.00131475

*CONN
*I *1120:B I *C 12.9 55.295 *L 0.00164 *D MXI2XL
*I *1182:Y O *C 8.555 52.925 *L 0 *D AOI22X1

*CAP
1 *409:1 3.9219e-07
2 *409:2 1.92173e-05
3 *409:3 1.88251e-05
4 *409:4 0.000371515
5 *409:5 0.000371515
6 *409:6 0.000204723
7 *409:7 0.000204723
8 *409:8 6.19192e-05
9 *409:9 6.19192e-05

*RES
1 *409:10 *1182:Y 1.4
2 *409:9 *409:10 1.4
3 *409:8 *409:9 0.372849
4 *409:7 *409:8 1.4
5 *409:6 *409:7 1.11855
6 *409:5 *409:6 1.4
7 *409:4 *409:5 2.2371
8 *409:3 *409:4 1.4
9 *409:2 *409:3 0.102855
10 *409:1 *409:2 0.00214282
11 *1120:B *409:1 1.4
*END

*D_NET *410 0.00168417

*CONN
*I *1038:A1 I *C 26.535 83.955 *L 0.00279 *D AOI211X1
*I *1181:Y O *C 33.495 81.635 *L 0 *D OAI22X1

*CAP
1 *410:1 2.49191e-05
2 *410:2 2.49191e-05
3 *410:3 0.000592897
4 *410:4 0.000592897
5 *410:5 0.000224272
6 *410:6 0.000224272

*RES
1 *410:6 *1181:Y 1.4
2 *410:5 *410:6 1.1186
3 *410:4 *410:5 1.4
4 *410:3 *410:4 2.98279
5 *410:2 *410:3 1.4
6 *410:1 *410:2 0.124289
7 *1038:A1 *410:1 1.4
*END

*D_NET *411 0.000638094

*CONN
*I *1129:B I *C 29.145 60.175 *L 0.00171 *D NOR2XL
*I *1180:Y O *C 32.335 59.595 *L 0 *D AOI22X1

*CAP
1 *411:2 0.000267719
2 *411:3 0.000267719
3 *411:4 5.13279e-05
4 *411:5 5.13279e-05

*RES
1 *411:5 *1180:Y 1.4
2 *411:4 *411:5 0.248565
3 *411:3 *411:4 1.4
4 *411:2 *411:3 1.36711
5 *411:1 *411:2 1.4
6 *1129:B *411:1 1.4
*END

*D_NET *412 0.000787297

*CONN
*I *1051:A1 I *C 18.705 83.955 *L 0.00279 *D AOI211X1
*I *1179:Y O *C 16.095 86.855 *L 0 *D OAI22X1

*CAP
1 *412:2 0.000101904
2 *412:3 0.000101904
3 *412:4 0.000210222
4 *412:5 0.000210222
5 *412:6 8.15229e-05
6 *412:7 8.15229e-05

*RES
1 *412:8 *1179:Y 1.4
2 *412:7 *412:8 1.4
3 *412:6 *412:7 0.497132
4 *412:5 *412:6 1.4
5 *412:4 *412:5 1.24283
6 *412:3 *412:4 1.4
7 *412:2 *412:3 0.621416
8 *412:1 *412:2 1.4
9 *1051:A1 *412:1 1.4
*END

*D_NET *413 0.000765487

*CONN
*I *1117:A I *C 25.955 39.295 *L 0.0017 *D MXI2XL
*I *1178:Y O *C 24.795 42.485 *L 0 *D AOI22X1

*CAP
1 *413:1 0.000261112
2 *413:2 0.000261112
3 *413:3 8.14607e-05
4 *413:4 8.14607e-05
5 *413:5 4.0171e-05
6 *413:6 4.0171e-05

*RES
1 *413:6 *1178:Y 1.4
2 *413:5 *413:6 0.248567
3 *413:4 *413:5 1.4
4 *413:3 *413:4 0.497132
5 *413:2 *413:3 1.4
6 *413:1 *413:2 1.61568
7 *1117:A *413:1 1.4
*END

*D_NET *414 0.00161709

*CONN
*I *1117:B I *C 24.79 39.635 *L 0.00164 *D MXI2XL
*I *1177:Y O *C 33.205 38.425 *L 0 *D AOI22XL

*CAP
1 *414:1 3.46302e-07
2 *414:2 2.38948e-05
3 *414:3 2.35485e-05
4 *414:4 0.000709426
5 *414:5 0.000709426
6 *414:6 7.52231e-05
7 *414:7 7.52231e-05

*RES
1 *414:7 *1177:Y 1.4
2 *414:6 *414:7 0.372866
3 *414:5 *414:6 1.4
4 *414:4 *414:5 3.6042
5 *414:3 *414:4 1.4
6 *414:2 *414:3 0.145711
7 *414:1 *414:2 0.00214281
8 *1117:B *414:1 1.4
*END

*D_NET *415 0.000401755

*CONN
*I *1116:A I *C 30.015 36.685 *L 0.0017 *D MXI2XL
*I *1176:Y O *C 29.435 38.425 *L 0 *D AOI22XL

*CAP
1 *415:1 0.000150446
2 *415:2 0.000150446
3 *415:3 5.04313e-05
4 *415:4 5.04313e-05

*RES
1 *415:5 *1176:Y 1.4
2 *415:4 *415:5 1.4
3 *415:3 *415:4 0.248566
4 *415:2 *415:3 1.4
5 *415:1 *415:2 0.745731
6 *1116:A *415:1 1.4
*END

*D_NET *416 0.00136409

*CONN
*I *1116:B I *C 28.85 36.345 *L 0.00164 *D MXI2XL
*I *1175:Y O *C 28.275 43.645 *L 0 *D AOI22XL

*CAP
1 *416:1 4.32316e-07
2 *416:2 4.75548e-06
3 *416:3 4.32316e-06
4 *416:4 2.52156e-05
5 *416:5 2.52156e-05
6 *416:6 0.000626859
7 *416:7 0.000626859
8 *416:8 2.52156e-05
9 *416:9 2.52156e-05

*RES
1 *416:10 *1175:Y 1.4
2 *416:9 *416:10 1.4
3 *416:8 *416:9 0.124283
4 *416:7 *416:8 1.4
5 *416:6 *416:7 3.10721
6 *416:5 *416:6 1.4
7 *416:4 *416:5 0.124283
8 *416:3 *416:4 1.4
9 *416:2 *416:3 0.0214291
10 *416:1 *416:2 0.00214291
11 *1116:B *416:1 1.4
*END

*D_NET *417 0.000840888

*CONN
*I *1130:B I *C 6.235 86.275 *L 0.00171 *D NOR2XL
*I *1174:Y O *C 6.235 80.475 *L 0 *D AOI22X1

*CAP
1 *417:1 0.000420444
2 *417:2 0.000420444

*RES
1 *417:2 *1174:Y 1.4
2 *417:1 *417:2 2.48565
3 *1130:B *417:1 1.4
*END

*D_NET *418 0.0013751

*CONN
*I *1173:A I *C 59.305 59.885 *L 0.00273 *D CLKINVX1
*I *1124:B I *C 57.565 59.885 *L 0.00175 *D NOR2BXL
*I *1189:Y O *C 54.375 59.595 *L 0 *D NAND2XL

*CAP
1 *418:1 7.23599e-05
2 *418:2 7.23599e-05
3 *418:3 0.000157535
4 *418:4 0.00044635
5 *418:5 7.23599e-05
6 *418:6 0.000288815
7 *418:7 7.23599e-05
8 *418:8 9.64799e-05
9 *418:10 9.64799e-05

*RES
1 *418:10 *1189:Y 1.4
2 *418:8 *418:10 0.497134
3 *418:7 *1124:B 1.4
4 *418:6 *418:8 1.4
5 *418:5 *418:7 0.372851
6 *418:4 *418:6 1.36711
7 *418:4 *418:5 1.4
8 *418:3 *418:4 0.745697
9 *418:2 *418:3 1.4
10 *418:1 *418:2 0.372851
11 *1173:A *418:1 1.4
*END

*D_NET *419 0.0411363

*CONN
*I *1076:A1 I *C 119.625 43.935 *L 0.0028 *D AOI22X1
*I *1096:B1 I *C 123.395 44.225 *L 0.00283 *D AOI22X1
*I *1063:B1 I *C 123.105 73.515 *L 0.00283 *D AOI22X1
*I *1071:B1 I *C 120.495 99.615 *L 0.00283 *D AOI22X1
*I *1042:B1 I *C 96.715 73.515 *L 0.00163 *D AOI222XL
*I *1097:A1 I *C 93.525 106.575 *L 0.0028 *D AOI22X1
*I *1111:A1 I *C 62.205 101.355 *L 0.0028 *D AOI22X1
*I *1173:Y O *C 59.6775 59.885 *L 0 *D CLKINVX1
*I *1094:B1 I *C 54.665 110.055 *L 0.00283 *D AOI22X1
*I *1045:C0 I *C 60.755 43.935 *L 0.00166 *D AOI222XL
*I *1081:A0 I *C 66.845 44.225 *L 0.00157 *D AOI22XL
*I *1104:A1 I *C 39.585 111.795 *L 0.0028 *D AOI22X1

*CAP
1 *419:1 2.02866e-05
2 *419:2 2.02866e-05
3 *419:3 0.000270358
4 *419:4 0.000270358
5 *419:5 0.00235768
6 *419:6 0.00235768
7 *419:8 2.20611e-05
8 *419:9 0.000220611
9 *419:10 2.48248e-05
10 *419:11 0.000198549
11 *419:12 2.48248e-05
12 *419:13 2.48248e-05
13 *419:15 0.0021216
14 *419:16 0.00209677
15 *419:17 0.00191702
16 *419:19 0.00210523
17 *419:20 0.00191702
18 *419:21 0.00210523
19 *419:23 0.00014784
20 *419:25 0.00014784
21 *419:26 7.70873e-05
22 *419:27 0.00288326
23 *419:28 0.000412219
24 *419:29 0.00301621
25 *419:30 0.000412219
26 *419:32 0.000210038
27 *419:35 0.00357893
28 *419:36 0.000121143
29 *419:37 0.00345779
30 *419:38 0.000446331
31 *419:39 5.25118e-05
32 *419:40 0.000446331
33 *419:41 2.62559e-05
34 *419:42 2.62559e-05
35 *419:43 0.000532564
36 *419:44 0.00127664
37 *419:45 7.06965e-06
38 *419:46 0.000532564
39 *419:47 0.00127664
40 *419:48 7.06965e-06
41 *419:49 2.52392e-05
42 *419:50 5.23677e-05
43 *419:52 0.00115335
44 *419:53 0.000602228
45 *419:55 0.00112811
46 *419:56 0.000549861
47 *419:57 2.16089e-05
48 *419:59 0.000118693
49 *419:60 4.32178e-05
50 *419:61 2.16089e-05
51 *419:62 0.000118693
52 *419:63 4.32178e-05
53 *419:65 4.4028e-05
54 *419:67 4.4028e-05

*RES
1 *419:68 *1104:A1 1.4
2 *419:67 *419:68 1.4
3 *419:65 *419:67 0.248578
4 *419:63 *1081:A0 1.4
5 *419:62 *419:65 1.4
6 *419:61 *1045:C0 1.4
7 *419:60 *419:63 0.248567
8 *419:59 *419:62 0.745699
9 *419:57 *419:61 0.124283
10 *419:56 *419:60 1.4
11 *419:55 *419:59 1.4
12 *419:54 *1094:B1 1.4
13 *419:53 *419:57 1.4
14 *419:53 *419:56 2.61006
15 *419:52 *419:55 6.21439
16 *419:52 *419:54 1.4
17 *419:50 *419:53 0.248577
18 *419:49 *419:52 0.124283
19 *419:48 *1173:Y 1.4
20 *419:47 *419:50 1.4
21 *419:46 *419:49 1.4
22 *419:45 *419:48 0.0364279
23 *419:44 *419:47 6.95988
24 *419:43 *419:46 3.10711
25 *419:42 *419:45 1.4
26 *419:41 *419:44 1.4
27 *419:40 *419:43 1.4
28 *419:39 *419:42 0.124283
29 *419:39 *419:41 0.124283
30 *419:38 *419:40 2.11291
31 *419:37 *419:39 1.4
32 *419:36 *419:38 1.4
33 *419:35 *419:37 17.773
34 *419:35 *419:36 0.621444
35 *419:32 *419:35 1.4
36 *419:31 *1111:A1 1.4
37 *419:30 *1097:A1 1.4
38 *419:29 *419:32 0.99431
39 *419:29 *419:31 1.4
40 *419:28 *419:30 2.2372
41 *419:27 *419:29 13.4229
42 *419:27 *419:28 1.4
43 *419:26 *419:27 0.372849
44 *419:25 *419:26 1.4
45 *419:23 *419:25 0.745732
46 *419:22 *1042:B1 1.4
47 *419:21 *419:23 1.4
48 *419:20 *419:22 1.4
49 *419:19 *419:21 11.1858
50 *419:17 *419:20 10.1917
51 *419:16 *419:19 1.4
52 *419:16 *1071:B1 1.4
53 *419:15 *419:17 1.4
54 *419:15 *419:16 11.1855
55 *419:13 *419:15 0.124289
56 *419:12 *1063:B1 1.4
57 *419:11 *419:13 1.4
58 *419:10 *419:12 0.124289
59 *419:9 *419:11 1.1186
60 *419:9 *419:10 1.4
61 *419:8 *419:9 0.124289
62 *419:6 *419:8 1.4
63 *419:5 *1096:B1 1.4
64 *419:5 *419:6 12.4287
65 *419:4 *419:5 1.4
66 *419:3 *419:4 1.61568
67 *419:2 *419:3 1.4
68 *419:1 *419:2 0.124283
69 *1076:A1 *419:1 1.4
*END

*D_NET *420 0.042235

*CONN
*I *1349:B1 I *C 43.645 112.085 *L 0.00283 *D AOI22X1
*I *1104:B1 I *C 39.005 112.085 *L 0.00283 *D AOI22X1
*I *1115:A1 I *C 78.445 110.345 *L 0.0028 *D AOI22X1
*I *1047:C0 I *C 106.575 110.345 *L 0.00166 *D AOI222XL
*I *1052:C0 I *C 112.955 110.345 *L 0.00166 *D AOI222XL
*I *1110:A1 I *C 118.755 80.475 *L 0.0028 *D AOI22X1
*I *1095:A0 I *C 114.115 44.225 *L 0.00157 *D AOI22XL
*I *1084:B1 I *C 74.385 44.225 *L 0.00283 *D AOI22X1
*I *1102:A0 I *C 51.475 44.225 *L 0.00157 *D AOI22XL
*I *1076:B1 I *C 119.045 44.225 *L 0.00283 *D AOI22X1
*I *1188:Y O *C 51.475 59.595 *L 0 *D AND2X1
*I *1348:B1 I *C 60.465 70.615 *L 0.00171 *D AO22XL

*CAP
1 *420:1 3.95644e-05
2 *420:2 3.95644e-05
3 *420:3 2.2014e-05
4 *420:4 0.000352224
5 *420:5 0.000158258
6 *420:6 0.00033021
7 *420:7 0.000158258
8 *420:8 3.95644e-05
9 *420:9 0.00295547
10 *420:10 3.95644e-05
11 *420:11 0.00533846
12 *420:13 0.00270897
13 *420:15 0.000421854
14 *420:18 9.5876e-05
15 *420:19 0.00215541
16 *420:22 0.00215541
17 *420:24 0.000285467
18 *420:25 0.000285467
19 *420:26 0.000114773
20 *420:27 0.00307905
21 *420:28 0.000263508
22 *420:29 0.00298456
23 *420:30 0.000263508
24 *420:31 8.31871e-05
25 *420:32 2.02866e-05
26 *420:34 0.00342898
27 *420:35 0.000270358
28 *420:38 0.0054119
29 *420:39 0.000270358
30 *420:42 0.0020661
31 *420:43 2.02866e-05
32 *420:45 0.00134397
33 *420:46 2.02866e-05
34 *420:47 0.00149796
35 *420:50 0.000153984
36 *420:52 2.43381e-05
37 *420:53 2.43381e-05
38 *420:54 0.00084691
39 *420:55 0.00084691
40 *420:56 0.0007848
41 *420:57 0.0007848
42 *420:58 2.412e-05
43 *420:59 2.412e-05

*RES
1 *420:59 *1348:B1 1.4
2 *420:58 *420:59 0.124284
3 *420:57 *420:58 1.4
4 *420:56 *420:57 3.72849
5 *420:55 *420:56 1.4
6 *420:54 *420:55 4.10133
7 *420:53 *420:54 1.4
8 *420:52 *420:53 0.124283
9 *420:50 *420:52 1.4
10 *420:47 *1188:Y 1.4
11 *420:47 *420:50 0.745696
12 *420:46 *1076:B1 1.4
13 *420:45 *1102:A0 1.4
14 *420:45 *420:47 6.58714
15 *420:43 *420:46 0.124283
16 *420:42 *420:45 1.4
17 *420:41 *1084:B1 1.4
18 *420:39 *420:43 1.4
19 *420:38 *420:42 9.8188
20 *420:38 *420:41 1.4
21 *420:37 *1095:A0 1.4
22 *420:35 *420:39 1.61568
23 *420:34 *420:38 17.0274
24 *420:34 *420:37 1.4
25 *420:33 *1110:A1 1.4
26 *420:32 *420:35 1.4
27 *420:31 *420:34 0.497132
28 *420:30 *420:33 1.4
29 *420:29 *420:32 0.124283
30 *420:29 *420:31 1.4
31 *420:28 *420:30 1.49146
32 *420:27 *420:29 15.5359
33 *420:27 *420:28 1.4
34 *420:26 *420:27 0.621413
35 *420:25 *420:26 1.4
36 *420:24 *420:25 1.61575
37 *420:22 *420:24 1.4
38 *420:21 *1052:C0 1.4
39 *420:19 *420:22 12.1798
40 *420:18 *420:21 1.4
41 *420:16 *1047:C0 1.4
42 *420:15 *420:19 1.4
43 *420:15 *420:18 0.621416
44 *420:14 *1115:A1 1.4
45 *420:13 *420:16 1.4
46 *420:13 *420:15 2.11282
47 *420:11 *420:14 1.4
48 *420:11 *420:13 12.0554
49 *420:10 *1104:B1 1.4
50 *420:9 *420:11 15.0384
51 *420:8 *420:10 0.248566
52 *420:7 *420:9 1.4
53 *420:6 *420:8 1.4
54 *420:5 *420:7 0.994265
55 *420:4 *420:6 1.86433
56 *420:4 *420:5 1.4
57 *420:3 *420:4 0.124289
58 *420:2 *420:3 1.4
59 *420:1 *420:2 0.248566
60 *1349:B1 *420:1 1.4
*END

*D_NET *421 0.00199122

*CONN
*I *1066:B0 I *C 59.885 73.225 *L 0.00162 *D OAI22XL
*I *1172:A I *C 59.595 80.765 *L 0.00273 *D CLKINVX1
*I *1187:Y O *C 56.985 80.475 *L 0 *D NAND2XL

*CAP
1 *421:2 5.25118e-05
2 *421:3 5.25118e-05
3 *421:4 0.000603814
4 *421:5 0.000603814
5 *421:6 7.87643e-05
6 *421:7 0.000315057
7 *421:8 2.42286e-05
8 *421:9 0.000236293
9 *421:10 2.42286e-05

*RES
1 *421:11 *1187:Y 1.4
2 *421:10 *1172:A 1.4
3 *421:9 *421:11 1.4
4 *421:8 *421:10 0.124289
5 *421:7 *421:9 1.1186
6 *421:7 *421:8 1.4
7 *421:6 *421:7 0.372866
8 *421:5 *421:6 1.4
9 *421:4 *421:5 3.10713
10 *421:3 *421:4 1.4
11 *421:2 *421:3 0.248566
12 *421:1 *421:2 1.4
13 *1066:B0 *421:1 1.4
*END

*D_NET *422 0.0288099

*CONN
*I *1086:B1 I *C 81.635 52.635 *L 0.00283 *D AOI22X1
*I *1099:B1 I *C 106.285 54.665 *L 0.00283 *D AOI22X1
*I *1346:C1 I *C 113.245 52.635 *L 0.00176 *D AOI222XL
*I *1100:A1 I *C 110.925 73.805 *L 0.0028 *D AOI22X1
*I *1079:B1 I *C 112.955 99.615 *L 0.00283 *D AOI22X1
*I *1111:B1 I *C 62.785 101.645 *L 0.00283 *D AOI22X1
*I *1350:B1 I *C 100.195 104.545 *L 0.00171 *D AO22XL
*I *1089:B1 I *C 58.145 101.645 *L 0.00283 *D AOI22X1
*I *1172:Y O *C 59.2225 80.765 *L 0 *D CLKINVX1

*CAP
1 *422:1 2.34591e-05
2 *422:2 2.34591e-05
3 *422:3 0.0022172
4 *422:4 0.0022172
5 *422:5 7.44744e-05
6 *422:6 0.000198598
7 *422:7 0.000124124
8 *422:8 0.000507404
9 *422:9 0.000352977
10 *422:10 0.000507404
11 *422:11 0.000330916
12 *422:12 2.20611e-05
13 *422:13 4.96496e-05
14 *422:14 0.00163844
15 *422:16 4.96496e-05
16 *422:17 0.00366448
17 *422:20 0.0020949
18 *422:22 6.88638e-05
19 *422:23 0.000153713
20 *422:25 0.000840971
21 *422:26 0.000153713
22 *422:28 0.000840971
23 *422:29 4.59092e-05
24 *422:30 0.00014784
25 *422:31 4.59092e-05
26 *422:32 0.00014784
27 *422:34 0.00017987
28 *422:35 0.00337036
29 *422:36 0.000244314
30 *422:37 0.00345303
31 *422:38 0.000244314
32 *422:40 0.000262548
33 *422:41 0.000150113
34 *422:43 0.00181714
35 *422:44 0.000150113
36 *422:45 7.26857e-05
37 *422:46 0.00174446
38 *422:48 0.000157529
39 *422:49 5.25096e-05
40 *422:51 0.000157529
41 *422:52 5.25096e-05
42 *422:53 7.26857e-05
43 *422:54 6.68375e-06
44 *422:55 7.26857e-05
45 *422:56 6.68375e-06

*RES
1 *422:56 *1172:Y 1.4
2 *422:55 *1089:B1 1.4
3 *422:54 *422:56 0.0342866
4 *422:53 *422:55 0.372866
5 *422:52 *422:54 1.4
6 *422:51 *422:53 1.4
7 *422:49 *422:52 0.248577
8 *422:48 *422:51 0.745732
9 *422:47 *1350:B1 1.4
10 *422:46 *422:49 1.4
11 *422:45 *422:48 1.4
12 *422:44 *422:47 1.4
13 *422:43 *422:46 8.94879
14 *422:43 *422:45 0.372866
15 *422:41 *422:44 0.745697
16 *422:40 *422:43 1.4
17 *422:39 *1111:B1 1.4
18 *422:38 *422:41 1.4
19 *422:37 *422:40 1.24289
20 *422:37 *422:39 1.4
21 *422:36 *422:38 1.24289
22 *422:35 *422:37 15.2871
23 *422:35 *422:36 1.4
24 *422:34 *422:35 0.86998
25 *422:32 *422:34 1.4
26 *422:31 *1079:B1 1.4
27 *422:30 *422:32 0.745732
28 *422:29 *422:31 0.248565
29 *422:28 *422:30 1.4
30 *422:26 *422:29 1.4
31 *422:25 *422:28 4.47432
32 *422:24 *1100:A1 1.4
33 *422:23 *422:26 0.870021
34 *422:22 *422:25 1.4
35 *422:21 *422:24 1.4
36 *422:20 *422:23 1.4
37 *422:20 *422:22 0.372848
38 *422:17 *422:21 1.4
39 *422:17 *422:20 10.8127
40 *422:16 *1346:C1 1.4
41 *422:15 *1099:B1 1.4
42 *422:14 *422:17 8.20306
43 *422:13 *422:16 0.248577
44 *422:12 *422:15 1.4
45 *422:11 *422:14 1.4
46 *422:10 *422:13 1.4
47 *422:9 *422:12 0.124289
48 *422:9 *422:11 1.86433
49 *422:8 *422:10 2.85864
50 *422:7 *422:9 1.4
51 *422:6 *422:8 1.4
52 *422:6 *422:7 0.621444
53 *422:5 *422:6 0.372866
54 *422:4 *422:5 1.4
55 *422:3 *422:4 10.6888
56 *422:2 *422:3 1.4
57 *422:1 *422:2 0.124288
58 *1086:B1 *422:1 1.4
*END

*D_NET *423 0.000459059

*CONN
*I *1153:A I *C 53.505 78.735 *L 0.00273 *D CLKINVX1
*I *1170:Y O *C 51.185 79.025 *L 0 *D NAND2XL

*CAP
1 *423:2 0.000204611
2 *423:3 0.000204611
3 *423:4 2.49191e-05
4 *423:5 2.49191e-05

*RES
1 *423:5 *1170:Y 1.4
2 *423:4 *423:5 0.124289
3 *423:3 *423:4 1.4
4 *423:2 *423:3 0.994289
5 *423:1 *423:2 1.4
6 *1153:A *423:1 1.4
*END

*D_NET *424 0.000626062

*CONN
*I *1152:A I *C 60.175 78.735 *L 0.00273 *D CLKINVX1
*I *1169:Y O *C 56.985 79.025 *L 0 *D NAND2XL

*CAP
1 *424:1 2.42286e-05
2 *424:2 2.42286e-05
3 *424:3 0.000288803
4 *424:4 0.000288803

*RES
1 *424:5 *1169:Y 1.4
2 *424:4 *424:5 1.4
3 *424:3 *424:4 1.36718
4 *424:2 *424:3 1.4
5 *424:1 *424:2 0.124289
6 *1152:A *424:1 1.4
*END

*D_NET *425 0.000416024

*CONN
*I *1150:A I *C 64.235 91.205 *L 0.00273 *D CLKINVX1
*I *1163:Y O *C 62.205 90.915 *L 0 *D NAND2XL

*CAP
1 *425:1 2.42286e-05
2 *425:2 2.42286e-05
3 *425:3 0.000183783
4 *425:4 0.000183783

*RES
1 *425:5 *1163:Y 1.4
2 *425:4 *425:5 1.4
3 *425:3 *425:4 0.870021
4 *425:2 *425:3 1.4
5 *425:1 *425:2 0.124289
6 *1150:A *425:1 1.4
*END

*D_NET *426 0.000791524

*CONN
*I *1149:A I *C 74.385 94.395 *L 0.00521 *D INVX2
*I *1162:Y O *C 73.225 90.915 *L 0 *D NAND2XL

*CAP
1 *426:2 5.25096e-05
2 *426:3 5.25096e-05
3 *426:4 0.000290743
4 *426:5 0.000290743
5 *426:6 5.25096e-05
6 *426:7 5.25096e-05

*RES
1 *426:8 *1162:Y 1.4
2 *426:7 *426:8 1.4
3 *426:6 *426:7 0.248577
4 *426:5 *426:6 1.4
5 *426:4 *426:5 1.49146
6 *426:3 *426:4 1.4
7 *426:2 *426:3 0.248577
8 *426:1 *426:2 1.4
9 *1149:A *426:1 1.4
*END

*D_NET *427 0.000796251

*CONN
*I *1038:B0 I *C 26.825 83.955 *L 0.00278 *D AOI211X1
*I *1159:Y O *C 24.505 86.565 *L 0 *D NOR2XL

*CAP
1 *427:1 0.000224272
2 *427:2 0.000224272
3 *427:3 0.000173854
4 *427:4 0.000173854

*RES
1 *427:5 *1159:Y 1.4
2 *427:4 *427:5 1.4
3 *427:3 *427:4 0.994264
4 *427:2 *427:3 1.4
5 *427:1 *427:2 1.1186
6 *1038:B0 *427:1 1.4
*END

*D_NET *428 0.00151018

*CONN
*I *1059:C0 I *C 30.305 96.715 *L 0.00277 *D AOI221X1
*I *1158:Y O *C 31.21 88.945 *L 0 *D NOR2BXL

*CAP
1 *428:1 0.000672815
2 *428:2 0.000672815
3 *428:3 7.41121e-05
4 *428:4 7.41121e-05
5 *428:5 5.15567e-06
6 *428:6 8.16314e-06
7 *428:7 3.00747e-06

*RES
1 *428:7 *1158:Y 1.4
2 *428:6 *428:7 0.0150004
3 *428:5 *428:6 0.0257149
4 *428:4 *428:5 1.4
5 *428:3 *428:4 0.372849
6 *428:2 *428:3 1.4
7 *428:1 *428:2 3.3558
8 *1059:C0 *428:1 1.4
*END

*D_NET *429 0.000449659

*CONN
*I *1026:A0 I *C 21.895 101.645 *L 0.00265 *D AOI21X1
*I *1157:Y O *C 18.995 101.355 *L 0 *D NAND2XL

*CAP
1 *429:1 2.10222e-05
2 *429:2 2.10222e-05
3 *429:3 0.000203807
4 *429:4 0.000203807

*RES
1 *429:5 *1157:Y 1.4
2 *429:4 *429:5 1.4
3 *429:3 *429:4 1.24283
4 *429:2 *429:3 1.4
5 *429:1 *429:2 0.124283
6 *1026:A0 *429:1 1.4
*END

*D_NET *430 0.00187404

*CONN
*I *1051:B0 I *C 18.995 83.955 *L 0.00278 *D AOI211X1
*I *1156:Y O *C 23.055 91.785 *L 0 *D NOR2XL

*CAP
1 *430:1 4.20444e-05
2 *430:2 4.20444e-05
3 *430:3 0.00028533
4 *430:4 0.00028533
5 *430:5 0.000609644
6 *430:6 0.000609644

*RES
1 *430:6 *1156:Y 1.4
2 *430:5 *430:6 3.6042
3 *430:4 *430:5 1.4
4 *430:3 *430:4 1.73996
5 *430:2 *430:3 1.4
6 *430:1 *430:2 0.248565
7 *1051:B0 *430:1 1.4
*END

*D_NET *431 0.000523872

*CONN
*I *1142:B0 I *C 32.045 115.275 *L 0.0028 *D OAI21X1
*I *1155:Y O *C 28.855 115.565 *L 0 *D NAND2XL

*CAP
1 *431:2 0.000242154
2 *431:3 0.000242154
3 *431:4 1.97822e-05
4 *431:5 1.97822e-05

*RES
1 *431:5 *1155:Y 1.4
2 *431:4 *431:5 0.124283
3 *431:3 *431:4 1.4
4 *431:2 *431:3 1.36718
5 *431:1 *431:2 1.4
6 *1142:B0 *431:1 1.4
*END

*D_NET *432 0.000573226

*CONN
*I *1137:B0 I *C 22.475 78.735 *L 0.0028 *D OAI21X1
*I *1154:Y O *C 18.995 79.315 *L 0 *D NAND2BX1

*CAP
1 *432:1 2.10222e-05
2 *432:2 2.10222e-05
3 *432:3 0.000244569
4 *432:4 0.000244569
5 *432:5 2.10222e-05
6 *432:6 2.10222e-05

*RES
1 *432:6 *1154:Y 1.4
2 *432:5 *432:6 0.124283
3 *432:4 *432:5 1.4
4 *432:3 *432:4 1.4914
5 *432:2 *432:3 1.4
6 *432:1 *432:2 0.124283
7 *1137:B0 *432:1 1.4
*END

*D_NET *433 0.0352861

*CONN
*I *1006:A1 I *C 56.405 33.785 *L 0.00268 *D AOI221X1
*I *1082:A1 I *C 74.385 33.495 *L 0.0028 *D AOI22X1
*I *1347:B1 I *C 75.545 68.005 *L 0.00171 *D AO22XL
*I *1074:A1 I *C 88.885 33.495 *L 0.0028 *D AOI22X1
*I *1090:A1 I *C 93.235 33.495 *L 0.0028 *D AOI22X1
*I *1005:B1 I *C 92.365 78.735 *L 0.00268 *D AOI221X1
*I *1108:A1 I *C 94.105 90.915 *L 0.0028 *D AOI22X1
*I *1075:B1 I *C 91.495 115.275 *L 0.00283 *D AOI22X1
*I *1345:B1 I *C 86.565 115.275 *L 0.00268 *D AOI221X1
*I *1064:B1 I *C 71.485 117.305 *L 0.00283 *D AOI22X1
*I *1092:A1 I *C 56.695 117.015 *L 0.0028 *D AOI22X1
*I *1171:Y O *C 57.565 84.245 *L 0 *D AND2X1

*CAP
1 *433:1 4.32178e-05
2 *433:2 4.32178e-05
3 *433:3 0.0016234
4 *433:4 0.00172813
5 *433:5 0.000104735
6 *433:6 2.16089e-05
7 *433:7 6.48267e-05
8 *433:8 2.16089e-05
9 *433:9 0.0027058
10 *433:11 0.00266509
11 *433:12 0.00117975
12 *433:13 0.00154321
13 *433:14 2.412e-05
14 *433:15 0.00156235
15 *433:16 0.00154321
16 *433:18 0.000382604
17 *433:19 4.32789e-05
18 *433:20 0.000893218
19 *433:21 4.32789e-05
20 *433:22 4.32789e-05
21 *433:23 0.00195274
22 *433:24 4.32789e-05
23 *433:26 0.00105952
24 *433:27 2.56958e-05
25 *433:29 0.000154175
26 *433:30 2.56958e-05
27 *433:31 0.000128479
28 *433:32 2.56958e-05
29 *433:34 2.46401e-05
30 *433:35 0.00186815
31 *433:37 2.46401e-05
32 *433:38 0.00186815
33 *433:40 7.50563e-05
34 *433:41 0.000450338
35 *433:42 2.04665e-05
36 *433:43 0.000375282
37 *433:44 2.04665e-05
38 *433:45 2.04665e-05
39 *433:47 0.000143265
40 *433:48 0.000122799
41 *433:49 5.00376e-05
42 *433:50 0.00135619
43 *433:51 5.00376e-05
44 *433:52 0.00256768
45 *433:54 2.04773e-05
46 *433:55 0.0012872
47 *433:57 2.04773e-05
48 *433:58 0.00257465
49 *433:59 7.57177e-05
50 *433:61 0.00257465

*RES
1 *433:65 *1171:Y 1.4
2 *433:63 *433:65 1.4
3 *433:62 *1092:A1 1.4
4 *433:61 *433:63 1.4
5 *433:59 *433:62 1.4
6 *433:58 *433:61 14.0444
7 *433:57 *1064:B1 1.4
8 *433:55 *433:59 0.372849
9 *433:55 *433:58 1.4
10 *433:54 *433:57 0.124283
11 *433:53 *1345:B1 1.4
12 *433:52 *433:55 5.96558
13 *433:52 *433:54 1.4
14 *433:51 *433:53 1.4
15 *433:50 *433:52 6.71128
16 *433:49 *433:51 0.248566
17 *433:48 *433:50 1.4
18 *433:47 *433:49 1.4
19 *433:47 *433:48 0.745732
20 *433:45 *433:47 0.124289
21 *433:44 *1075:B1 1.4
22 *433:43 *433:45 1.4
23 *433:42 *433:44 0.124289
24 *433:41 *433:43 1.86424
25 *433:41 *433:42 1.4
26 *433:40 *433:41 0.372849
27 *433:38 *433:40 1.4
28 *433:37 *1108:A1 1.4
29 *433:35 *433:38 10.1917
30 *433:34 *433:37 0.124289
31 *433:33 *1005:B1 1.4
32 *433:32 *433:35 1.4
33 *433:31 *433:34 1.4
34 *433:30 *433:33 1.4
35 *433:29 *433:32 0.124283
36 *433:29 *433:31 0.621414
37 *433:27 *433:30 0.124283
38 *433:26 *433:29 1.4
39 *433:24 *1090:A1 1.4
40 *433:23 *433:27 1.4
41 *433:23 *433:26 5.34442
42 *433:22 *1074:A1 1.4
43 *433:21 *433:24 0.248578
44 *433:20 *433:23 4.72295
45 *433:19 *433:22 0.248578
46 *433:18 *433:21 1.4
47 *433:16 *433:20 1.4
48 *433:15 *433:19 1.4
49 *433:15 *433:18 1.86433
50 *433:14 *1347:B1 1.4
51 *433:13 *433:16 7.33298
52 *433:12 *433:15 5.71728
53 *433:11 *433:14 0.124284
54 *433:11 *433:13 1.4
55 *433:9 *433:12 1.4
56 *433:9 *433:11 14.4169
57 *433:8 *1082:A1 1.4
58 *433:7 *433:9 0.37285
59 *433:6 *433:8 0.124283
60 *433:5 *433:7 1.4
61 *433:4 *433:6 1.4
62 *433:4 *433:5 0.497155
63 *433:3 *433:4 7.7059
64 *433:2 *433:3 1.4
65 *433:1 *433:2 0.248567
66 *1006:A1 *433:1 1.4
*END

*D_NET *434 0.0404259

*CONN
*I *1110:B1 I *C 118.175 80.765 *L 0.00283 *D AOI22X1
*I *1346:A1 I *C 114.985 52.635 *L 0.00162 *D AOI222XL
*I *1095:B0 I *C 115.275 44.225 *L 0.00159 *D AOI22XL
*I *1067:B1 I *C 107.445 91.205 *L 0.00283 *D AOI22X1
*I *1106:B1 I *C 101.935 106.865 *L 0.00283 *D AOI22X1
*I *1115:B1 I *C 79.025 110.055 *L 0.00283 *D AOI22X1
*I *1042:C0 I *C 97.585 73.805 *L 0.00166 *D AOI222XL
*I *1153:Y O *C 53.8775 78.735 *L 0 *D CLKINVX1
*I *1126:B I *C 51.185 109.765 *L 0.00172 *D AND2X1
*I *1040:A1 I *C 63.655 73.805 *L 0.00163 *D AOI21XL
*I *1081:B0 I *C 65.685 44.225 *L 0.00159 *D AOI22XL
*I *1102:B0 I *C 50.315 44.225 *L 0.00159 *D AOI22XL

*CAP
1 *434:1 4.59092e-05
2 *434:2 4.59092e-05
3 *434:3 0.000241549
4 *434:4 0.000241549
5 *434:5 2.29546e-05
6 *434:6 0.00243802
7 *434:7 0.000548976
8 *434:8 0.00301018
9 *434:9 0.000548976
10 *434:11 0.000595118
11 *434:12 0.000826366
12 *434:13 2.07968e-05
13 *434:14 0.00200393
14 *434:15 2.29546e-05
15 *434:16 2.07968e-05
16 *434:17 0.00120052
17 *434:18 2.1959e-05
18 *434:19 0.000830684
19 *434:21 0.000433174
20 *434:22 2.1959e-05
21 *434:23 0.000830684
22 *434:25 0.00240966
23 *434:27 0.000573057
24 *434:29 0.00197648
25 *434:31 0.000573057
26 *434:33 0.000225131
27 *434:34 2.61369e-05
28 *434:35 0.000266064
29 *434:36 2.61369e-05
30 *434:37 4.09329e-05
31 *434:40 0.00219526
32 *434:42 0.00219526
33 *434:43 6.14318e-05
34 *434:44 0.00258449
35 *434:45 0.000215865
36 *434:46 0.0026268
37 *434:47 0.000215865
38 *434:48 7.10148e-06
39 *434:49 9.66428e-05
40 *434:52 0.000892701
41 *434:54 0.000892701
42 *434:55 0.00031356
43 *434:56 0.00266152
44 *434:58 0.00241279
45 *434:59 0.000183287
46 *434:60 6.48267e-05
47 *434:61 0.000183287
48 *434:62 0.00119816
49 *434:63 4.32178e-05
50 *434:64 0.00119816
51 *434:65 4.32178e-05
52 *434:66 2.50744e-05
53 *434:68 2.50744e-05

*RES
1 *434:68 *1102:B0 1.4
2 *434:66 *434:68 0.124289
3 *434:65 *1081:B0 1.4
4 *434:64 *434:66 1.4
5 *434:63 *434:65 0.248567
6 *434:62 *434:64 5.71724
7 *434:61 *434:63 1.4
8 *434:60 *434:62 1.4
9 *434:59 *434:61 0.870021
10 *434:58 *434:60 0.37285
11 *434:58 *434:59 1.4
12 *434:56 *434:58 12.4284
13 *434:56 *1040:A1 1.4
14 *434:55 *434:56 1.61569
15 *434:54 *434:55 1.4
16 *434:52 *434:54 4.22562
17 *434:50 *1126:B 1.4
18 *434:49 *434:52 1.4
19 *434:48 *1153:Y 1.4
20 *434:47 *434:50 1.4
21 *434:46 *434:49 0.497142
22 *434:46 *434:48 0.0364295
23 *434:45 *434:47 1.11857
24 *434:44 *434:46 13.2988
25 *434:44 *434:45 1.4
26 *434:43 *434:44 0.37285
27 *434:42 *434:43 1.4
28 *434:40 *434:42 10.8126
29 *434:39 *1042:C0 1.4
30 *434:37 *434:40 1.4
31 *434:36 *434:39 1.4
32 *434:35 *1115:B1 1.4
33 *434:35 *434:37 0.248578
34 *434:34 *434:36 0.124289
35 *434:33 *434:35 1.36718
36 *434:31 *434:34 1.4
37 *434:29 *434:33 1.4
38 *434:28 *1106:B1 1.4
39 *434:27 *434:31 2.98292
40 *434:26 *1067:B1 1.4
41 *434:25 *434:29 9.81835
42 *434:25 *434:28 1.4
43 *434:23 *434:27 1.4
44 *434:22 *434:26 1.4
45 *434:21 *434:25 2.48566
46 *434:20 *1095:B0 1.4
47 *434:19 *434:23 4.22569
48 *434:18 *434:22 0.124289
49 *434:17 *434:21 1.4
50 *434:16 *434:20 1.4
51 *434:15 *434:19 1.4
52 *434:14 *434:18 1.4
53 *434:14 *434:17 6.71131
54 *434:13 *434:16 0.124283
55 *434:12 *434:15 0.124283
56 *434:12 *434:14 4.34989
57 *434:11 *434:13 1.4
58 *434:9 *434:12 1.4
59 *434:8 *434:11 3.60422
60 *434:8 *1346:A1 1.4
61 *434:7 *434:9 3.10722
62 *434:6 *434:8 12.1802
63 *434:6 *434:7 1.4
64 *434:5 *434:6 0.124283
65 *434:4 *434:5 1.4
66 *434:3 *434:4 1.36718
67 *434:2 *434:3 1.4
68 *434:1 *434:2 0.248565
69 *1110:B1 *434:1 1.4
*END

*D_NET *435 0.0364245

*CONN
*I *1078:B1 I *C 109.475 47.415 *L 0.00283 *D AOI22X1
*I *1088:B1 I *C 95.555 47.415 *L 0.00283 *D AOI22X1
*I *1109:B1 I *C 93.815 70.325 *L 0.00283 *D AOI22X1
*I *1100:B1 I *C 110.345 73.515 *L 0.00283 *D AOI22X1
*I *1065:B1 I *C 110.055 104.835 *L 0.00283 *D AOI22X1
*I *1097:B1 I *C 92.945 106.865 *L 0.00283 *D AOI22X1
*I *1049:B1 I *C 62.785 106.865 *L 0.00283 *D AOI22X1
*I *1009:A1 I *C 46.835 106.865 *L 0.00278 *D AOI21X1
*I *1125:B I *C 61.625 81.055 *L 0.00167 *D NAND2XL
*I *1152:Y O *C 60.5475 78.735 *L 0 *D CLKINVX1
*I *1080:B0 I *C 66.555 52.635 *L 0.00159 *D AOI22XL
*I *1103:B0 I *C 59.595 52.635 *L 0.00159 *D AOI22XL

*CAP
1 *435:1 2.02866e-05
2 *435:2 2.02866e-05
3 *435:3 0.0011419
4 *435:4 0.0011419
5 *435:5 2.16395e-05
6 *435:6 0.00182143
7 *435:7 0.00182325
8 *435:9 2.34591e-05
9 *435:10 0.000156821
10 *435:11 0.00124943
11 *435:12 0.000156821
12 *435:13 0.00124943
13 *435:14 2.34591e-05
14 *435:15 0.000273073
15 *435:16 2.34591e-05
16 *435:17 0.00277614
17 *435:19 0.00250307
18 *435:21 1.91752e-05
19 *435:23 0.00125624
20 *435:26 0.00123706
21 *435:28 0.000163732
22 *435:29 0.000163732
23 *435:30 0.000125094
24 *435:31 0.00273884
25 *435:32 2.04665e-05
26 *435:33 0.00261375
27 *435:34 2.04665e-05
28 *435:35 4.09545e-05
29 *435:37 2.04773e-05
30 *435:38 0.00214493
31 *435:39 0.00132849
32 *435:41 0.00212446
33 *435:42 0.00132849
34 *435:43 0.000105019
35 *435:44 3.95644e-05
36 *435:45 0.000157529
37 *435:46 3.95644e-05
38 *435:48 5.25096e-05
39 *435:51 0.000193829
40 *435:52 0.000193829
41 *435:53 5.25096e-05
42 *435:54 5.25096e-05
43 *435:55 0.000151984
44 *435:56 7.10148e-06
45 *435:57 0.000144883
46 *435:59 2.62559e-05
47 *435:60 2.62559e-05
48 *435:61 0.00197784
49 *435:62 0.00202608
50 *435:63 0.00057763
51 *435:64 4.82399e-05
52 *435:65 0.00057763
53 *435:66 5.25118e-05
54 *435:67 4.82399e-05
55 *435:68 5.25118e-05
56 *435:69 4.82399e-05

*RES
1 *435:70 *1103:B0 1.4
2 *435:69 *1080:B0 1.4
3 *435:68 *435:70 1.4
4 *435:67 *435:69 0.248567
5 *435:66 *435:68 0.248566
6 *435:65 *435:67 1.4
7 *435:64 *435:66 1.4
8 *435:63 *435:65 2.73422
9 *435:62 *435:64 0.248567
10 *435:62 *435:63 1.4
11 *435:61 *435:62 10.1913
12 *435:60 *435:61 1.4
13 *435:59 *435:60 0.124283
14 *435:57 *435:59 1.4
15 *435:56 *1152:Y 1.4
16 *435:55 *435:57 0.745709
17 *435:55 *435:56 0.0364295
18 *435:54 *435:55 1.4
19 *435:53 *435:54 0.248577
20 *435:52 *435:53 1.4
21 *435:51 *435:52 0.99431
22 *435:48 *435:51 1.4
23 *435:47 *1125:B 1.4
24 *435:46 *1009:A1 1.4
25 *435:45 *435:48 0.248577
26 *435:45 *435:47 1.4
27 *435:44 *435:46 0.248566
28 *435:43 *435:45 0.497155
29 *435:42 *435:44 1.4
30 *435:41 *435:43 1.4
31 *435:39 *435:42 6.83567
32 *435:38 *435:41 11.0617
33 *435:38 *1049:B1 1.4
34 *435:37 *435:39 1.4
35 *435:35 *435:38 0.124283
36 *435:35 *435:37 0.124283
37 *435:34 *1097:B1 1.4
38 *435:33 *435:35 1.4
39 *435:32 *435:34 0.124289
40 *435:31 *435:33 12.9254
41 *435:31 *435:32 1.4
42 *435:30 *435:31 0.621414
43 *435:29 *435:30 1.4
44 *435:28 *435:29 0.99431
45 *435:26 *435:28 1.4
46 *435:25 *1065:B1 1.4
47 *435:23 *435:26 6.71128
48 *435:23 *435:25 1.4
49 *435:22 *1100:B1 1.4
50 *435:21 *435:23 0.124283
51 *435:20 *435:22 1.4
52 *435:19 *435:21 1.4
53 *435:17 *435:20 1.4
54 *435:17 *435:19 13.4226
55 *435:16 *1109:B1 1.4
56 *435:15 *435:17 1.36718
57 *435:14 *435:16 0.124288
58 *435:13 *435:15 1.4
59 *435:12 *435:14 1.4
60 *435:11 *435:13 6.33873
61 *435:10 *435:12 0.745732
62 *435:9 *435:11 1.4
63 *435:7 *435:10 1.4
64 *435:7 *435:9 0.124288
65 *435:6 *1088:B1 1.4
66 *435:6 *435:7 9.69448
67 *435:5 *435:6 0.124289
68 *435:4 *435:5 1.4
69 *435:3 *435:4 5.96576
70 *435:2 *435:3 1.4
71 *435:1 *435:2 0.124283
72 *1078:B1 *435:1 1.4
*END

*D_NET *436 0.0010643

*CONN
*I *1151:A I *C 58.435 75.545 *L 0.00273 *D CLKINVX1
*I *1168:Y O *C 56.115 75.255 *L 0 *D NAND2XL
*I *1066:A0 I *C 58.725 73.225 *L 0.00155 *D OAI22XL

*CAP
1 *436:2 7.87677e-05
2 *436:3 7.87677e-05
3 *436:4 4.82399e-05
4 *436:5 0.00019296
5 *436:6 0.00013128
6 *436:7 0.00014472
7 *436:8 0.00013128
8 *436:9 0.000105024
9 *436:10 2.412e-05
10 *436:11 0.000105024
11 *436:12 2.412e-05

*RES
1 *436:13 *1066:A0 1.4
2 *436:12 *1168:Y 1.4
3 *436:11 *436:13 1.4
4 *436:10 *436:12 0.124284
5 *436:9 *436:11 0.497131
6 *436:8 *436:10 1.4
7 *436:7 *436:9 1.4
8 *436:6 *436:8 0.621414
9 *436:5 *436:7 0.745701
10 *436:5 *436:6 1.4
11 *436:4 *436:5 0.248567
12 *436:3 *436:4 1.4
13 *436:2 *436:3 0.372849
14 *436:1 *436:2 1.4
15 *1151:A *436:1 1.4
*END

*D_NET *437 0.0318133

*CONN
*I *1068:A1 I *C 114.985 70.035 *L 0.0028 *D AOI22X1
*I *1112:A1 I *C 108.025 68.585 *L 0.0028 *D AOI22X1
*I *1099:A1 I *C 106.865 54.375 *L 0.0028 *D AOI22X1
*I *1078:A1 I *C 108.895 47.705 *L 0.0028 *D AOI22X1
*I *1053:A1 I *C 74.965 47.705 *L 0.0028 *D AOI22X1
*I *1045:B1 I *C 59.885 44.225 *L 0.00163 *D AOI222XL
*I *1151:Y O *C 58.8075 75.545 *L 0 *D CLKINVX1
*I *1089:A1 I *C 58.725 101.355 *L 0.0028 *D AOI22X1
*I *1075:A1 I *C 90.915 115.565 *L 0.0028 *D AOI22X1
*I *1345:A1 I *C 85.985 115.275 *L 0.00268 *D AOI221X1
*I *1064:A1 I *C 72.065 117.015 *L 0.0028 *D AOI22X1

*CAP
1 *437:2 0.000529465
2 *437:3 0.000529465
3 *437:4 0.000124124
4 *437:5 0.00134054
5 *437:7 0.00169676
6 *437:8 8.82442e-05
7 *437:9 0.000500628
8 *437:10 8.82442e-05
9 *437:11 6.23904e-05
10 *437:12 2.02866e-05
11 *437:14 6.23904e-05
12 *437:15 0.0028567
13 *437:17 2.02866e-05
14 *437:18 0.00419207
15 *437:19 2.02866e-05
16 *437:21 0.00136156
17 *437:24 0.000259307
18 *437:25 2.61838e-05
19 *437:26 0.000259307
20 *437:27 0.00225248
21 *437:28 2.61838e-05
22 *437:29 0.00225248
23 *437:30 2.61838e-05
24 *437:31 0.000105024
25 *437:33 0.000105024
26 *437:35 2.412e-05
27 *437:36 0.000151789
28 *437:37 7.06965e-06
29 *437:38 0.0001206
30 *437:40 7.87677e-05
31 *437:41 7.87677e-05
32 *437:42 0.00201048
33 *437:43 0.00201048
34 *437:44 7.87643e-05
35 *437:45 0.00141776
36 *437:46 0.00133899
37 *437:47 2.42286e-05
38 *437:48 0.001067
39 *437:49 2.42286e-05
40 *437:50 0.001067
41 *437:52 0.00107945
42 *437:53 0.00150476
43 *437:54 0.000102386
44 *437:55 0.000425319
45 *437:56 2.04665e-05
46 *437:57 0.000102386
47 *437:59 2.04665e-05
48 *437:60 0.000126196
49 *437:63 0.000126196

*RES
1 *437:64 *1064:A1 1.4
2 *437:63 *437:64 1.4
3 *437:60 *437:63 0.621414
4 *437:59 *1345:A1 1.4
5 *437:58 *1075:A1 1.4
6 *437:57 *437:60 1.4
7 *437:56 *437:59 0.124289
8 *437:55 *437:58 1.4
9 *437:54 *437:57 0.621417
10 *437:53 *437:56 1.4
11 *437:53 *437:55 2.11281
12 *437:52 *437:54 1.4
13 *437:52 *437:53 5.34416
14 *437:50 *437:52 1.4
15 *437:49 *1089:A1 1.4
16 *437:48 *437:50 6.21423
17 *437:47 *437:49 0.124289
18 *437:46 *437:48 1.4
19 *437:45 *437:47 1.4
20 *437:45 *437:46 6.33873
21 *437:44 *437:45 0.372866
22 *437:43 *437:44 1.4
23 *437:42 *437:43 10.3159
24 *437:41 *437:42 1.4
25 *437:40 *437:41 0.372849
26 *437:38 *437:40 1.4
27 *437:37 *1151:Y 1.4
28 *437:36 *437:38 0.621418
29 *437:36 *437:37 0.0364279
30 *437:35 *437:36 0.124284
31 *437:33 *437:35 1.4
32 *437:32 *1045:B1 1.4
33 *437:31 *437:33 0.497131
34 *437:30 *437:32 1.4
35 *437:29 *437:31 1.4
36 *437:28 *437:30 0.124289
37 *437:27 *437:29 11.8069
38 *437:26 *437:28 1.4
39 *437:25 *437:27 1.4
40 *437:24 *437:26 1.4914
41 *437:21 *437:25 0.124289
42 *437:21 *437:24 1.4
43 *437:20 *1053:A1 1.4
44 *437:19 *1078:A1 1.4
45 *437:18 *437:21 6.33873
46 *437:18 *437:20 1.4
47 *437:17 *437:19 0.124283
48 *437:15 *437:18 14.1688
49 *437:14 *437:17 1.4
50 *437:13 *1099:A1 1.4
51 *437:12 *437:15 1.4
52 *437:11 *437:14 0.372849
53 *437:10 *437:13 1.4
54 *437:9 *437:12 0.124283
55 *437:9 *437:11 1.4
56 *437:8 *437:10 0.497155
57 *437:7 *437:9 2.73427
58 *437:7 *437:8 1.4
59 *437:5 *437:7 6.09015
60 *437:5 *1112:A1 1.4
61 *437:4 *437:5 0.621444
62 *437:3 *437:4 1.4
63 *437:2 *437:3 2.98293
64 *437:1 *437:2 1.4
65 *1068:A1 *437:1 1.4
*END

*D_NET *438 0.0386862

*CONN
*I *1096:A1 I *C 122.815 43.935 *L 0.0028 *D AOI22X1
*I *1077:A1 I *C 122.525 49.155 *L 0.0028 *D AOI22X1
*I *1063:A1 I *C 122.525 73.805 *L 0.0028 *D AOI22X1
*I *1071:A1 I *C 121.075 99.905 *L 0.0028 *D AOI22X1
*I *1106:A1 I *C 102.515 106.575 *L 0.0028 *D AOI22X1
*I *1042:A1 I *C 96.135 73.515 *L 0.00162 *D AOI222XL
*I *1070:B1 I *C 76.705 78.735 *L 0.00283 *D AOI22X1
*I *1084:A1 I *C 74.965 43.935 *L 0.0028 *D AOI22X1
*I *1167:Y O *C 54.085 80.475 *L 0 *D AND2X1
*I *1094:A1 I *C 54.085 110.345 *L 0.0028 *D AOI22X1
*I *1062:A1 I *C 70.615 110.345 *L 0.0028 *D AOI22X1

*CAP
1 *438:2 2.07968e-05
2 *438:3 2.07968e-05
3 *438:4 0.000365159
4 *438:5 0.00242761
5 *438:6 0.00211211
6 *438:8 4.96496e-05
7 *438:10 0.000110305
8 *438:11 0.000110305
9 *438:12 0.0020949
10 *438:13 0.00253877
11 *438:14 4.96496e-05
12 *438:15 0.000493515
13 *438:17 0.00201341
14 *438:18 0.0012652
15 *438:19 0.00379149
16 *438:20 0.0012652
17 *438:21 2.34591e-05
18 *438:22 0.0018831
19 *438:24 2.34591e-05
20 *438:25 0.000410202
21 *438:26 0.000105024
22 *438:29 0.000531345
23 *438:30 0.00241279
24 *438:31 0.000121143
25 *438:32 2.62548e-05
26 *438:33 0.00241279
27 *438:34 0.0019166
28 *438:35 2.62548e-05
29 *438:36 2.61838e-05
30 *438:37 0.0019166
31 *438:39 2.61838e-05
32 *438:40 2.42286e-05
33 *438:43 0.00238144
34 *438:45 0.00241864
35 *438:46 0.000105019
36 *438:47 6.14318e-05
37 *438:48 0.00133768
38 *438:49 0.000105019
39 *438:50 0.000100957
40 *438:51 0.00133768
41 *438:53 0.000100957
42 *438:54 6.14318e-05
43 *438:57 6.14318e-05

*RES
1 *438:57 *1062:A1 1.4
2 *438:56 *1094:A1 1.4
3 *438:54 *438:57 0.37285
4 *438:53 *438:56 1.4
5 *438:52 *1167:Y 1.4
6 *438:51 *438:54 1.4
7 *438:50 *438:53 0.497132
8 *438:49 *438:52 1.4
9 *438:48 *438:51 6.58699
10 *438:47 *438:50 1.4
11 *438:46 *438:49 0.497155
12 *438:45 *438:48 1.4
13 *438:45 *438:47 0.37285
14 *438:43 *438:46 1.4
15 *438:43 *438:45 12.4288
16 *438:42 *1084:A1 1.4
17 *438:40 *438:43 0.124289
18 *438:39 *438:42 1.4
19 *438:38 *1070:B1 1.4
20 *438:37 *438:40 1.4
21 *438:36 *438:39 0.124289
22 *438:35 *438:38 1.4
23 *438:34 *438:37 9.07308
24 *438:33 *438:36 1.4
25 *438:32 *438:35 0.124289
26 *438:31 *438:34 1.4
27 *438:30 *438:33 12.8012
28 *438:29 *438:32 1.4
29 *438:29 *438:31 0.621444
30 *438:26 *438:30 1.4
31 *438:25 *438:29 2.11283
32 *438:24 *1042:A1 1.4
33 *438:23 *1106:A1 1.4
34 *438:22 *438:26 0.497131
35 *438:22 *438:25 1.4
36 *438:21 *438:24 0.124288
37 *438:20 *438:23 1.4
38 *438:19 *438:22 8.4516
39 *438:19 *438:21 1.4
40 *438:18 *438:20 7.95412
41 *438:17 *438:19 10.6888
42 *438:15 *438:18 1.4
43 *438:14 *438:17 1.4
44 *438:13 *1071:A1 1.4
45 *438:13 *438:15 2.85854
46 *438:12 *438:14 0.248577
47 *438:12 *438:13 10.937
48 *438:11 *438:12 1.4
49 *438:10 *438:11 0.621444
50 *438:8 *438:10 1.4
51 *438:6 *1063:A1 1.4
52 *438:6 *438:8 0.248577
53 *438:5 *1077:A1 1.4
54 *438:5 *438:6 10.5645
55 *438:4 *438:5 2.2371
56 *438:3 *438:4 1.4
57 *438:2 *438:3 0.124283
58 *438:1 *438:2 1.4
59 *1096:A1 *438:1 1.4
*END

*D_NET *439 0.0343837

*CONN
*I *1052:A1 I *C 111.505 110.055 *L 0.00162 *D AOI222XL
*I *1047:A1 I *C 105.125 110.055 *L 0.00162 *D AOI222XL
*I *1048:A1 I *C 105.125 83.955 *L 0.00162 *D AOI222XL
*I *1114:A1 I *C 103.095 68.585 *L 0.0028 *D AOI22X1
*I *1041:B1 I *C 101.065 44.225 *L 0.00163 *D AOI222XL
*I *1093:A1 I *C 96.425 42.485 *L 0.0028 *D AOI22X1
*I *1045:A1 I *C 59.305 44.225 *L 0.00162 *D AOI222XL
*I *1086:A1 I *C 81.055 52.925 *L 0.0028 *D AOI22X1
*I *1070:A1 I *C 76.125 79.025 *L 0.0028 *D AOI22X1
*I *1166:Y O *C 59.015 85.695 *L 0 *D AND2X1
*I *1113:A1 I *C 59.015 106.575 *L 0.0028 *D AOI22X1

*CAP
1 *439:2 0.000421854
2 *439:3 0.000421854
3 *439:4 0.00193046
4 *439:6 0.00197637
5 *439:7 0.000170529
6 *439:8 4.59092e-05
7 *439:9 0.000170529
8 *439:11 0.00131564
9 *439:12 0.00321453
10 *439:14 0.00189889
11 *439:16 0.000178548
12 *439:18 0.000586659
13 *439:19 2.16395e-05
14 *439:20 0.00040811
15 *439:21 2.16395e-05
16 *439:22 0.000129837
17 *439:24 0.000151476
18 *439:25 0.00124984
19 *439:26 2.16395e-05
20 *439:27 0.00124984
21 *439:29 0.000129837
22 *439:30 0.000129837
23 *439:31 0.000102028
24 *439:32 0.00205939
25 *439:33 0.000632094
26 *439:34 0.00195736
27 *439:35 0.00277101
28 *439:36 2.16089e-05
29 *439:37 0.00213891
30 *439:39 2.16089e-05
31 *439:40 0.000441021
32 *439:43 0.00183252
33 *439:45 2.42286e-05
34 *439:46 0.0013915
35 *439:47 2.42286e-05
36 *439:48 0.000533029
37 *439:50 0.0006784
38 *439:51 0.000145371
39 *439:52 0.000157529
40 *439:53 5.25096e-05
41 *439:54 0.000157529
42 *439:55 5.25096e-05
43 *439:57 0.00157095
44 *439:59 0.00157095
45 *439:60 0.000100957
46 *439:61 0.000100957

*RES
1 *439:62 *1113:A1 1.4
2 *439:61 *439:62 1.4
3 *439:60 *439:61 0.497132
4 *439:59 *439:60 1.4
5 *439:57 *439:59 8.20302
6 *439:56 *1166:Y 1.4
7 *439:55 *439:57 1.4
8 *439:54 *439:56 1.4
9 *439:53 *439:55 0.248577
10 *439:52 *439:54 0.745732
11 *439:51 *439:53 1.4
12 *439:50 *439:52 1.4
13 *439:50 *439:51 0.745732
14 *439:48 *439:50 2.73435
15 *439:47 *1070:A1 1.4
16 *439:46 *439:48 1.4
17 *439:45 *439:47 0.124289
18 *439:43 *439:46 6.5873
19 *439:43 *439:45 1.4
20 *439:41 *1086:A1 1.4
21 *439:40 *439:43 2.11285
22 *439:39 *1045:A1 1.4
23 *439:38 *439:41 1.4
24 *439:37 *439:40 1.4
25 *439:36 *439:39 0.124283
26 *439:35 *439:38 1.4
27 *439:35 *439:37 11.3102
28 *439:34 *439:36 1.4
29 *439:33 *439:35 3.60437
30 *439:32 *439:34 9.32166
31 *439:32 *439:33 1.4
32 *439:31 *439:32 0.497155
33 *439:30 *439:31 1.4
34 *439:29 *439:30 0.745732
35 *439:27 *439:29 1.4
36 *439:26 *1093:A1 1.4
37 *439:25 *439:27 6.09015
38 *439:24 *439:26 0.124289
39 *439:24 *439:25 1.4
40 *439:22 *439:24 0.745732
41 *439:21 *1041:B1 1.4
42 *439:20 *439:22 1.4
43 *439:19 *439:21 0.124289
44 *439:18 *439:20 1.98862
45 *439:18 *439:19 1.4
46 *439:16 *439:18 0.870021
47 *439:15 *1114:A1 1.4
48 *439:14 *439:16 1.4
49 *439:13 *439:15 1.4
50 *439:12 *439:14 10.3159
51 *439:12 *439:13 1.4
52 *439:11 *439:12 6.83586
53 *439:9 *439:11 1.4
54 *439:8 *1048:A1 1.4
55 *439:7 *439:9 0.869995
56 *439:6 *439:8 0.248565
57 *439:6 *439:7 1.4
58 *439:4 *439:6 10.937
59 *439:4 *1047:A1 1.4
60 *439:3 *439:4 1.4
61 *439:2 *439:3 2.73423
62 *439:1 *439:2 1.4
63 *1052:A1 *439:1 1.4
*END

*D_NET *440 0.0331749

*CONN
*I *1047:B1 I *C 105.705 110.055 *L 0.00163 *D AOI222XL
*I *1048:C0 I *C 106.575 84.245 *L 0.00166 *D AOI222XL
*I *1067:A1 I *C 106.865 90.915 *L 0.0028 *D AOI22X1
*I *1114:B1 I *C 103.675 68.295 *L 0.00283 *D AOI22X1
*I *1041:A1 I *C 100.485 44.225 *L 0.00162 *D AOI222XL
*I *1093:B1 I *C 95.845 42.195 *L 0.00283 *D AOI22X1
*I *1080:A0 I *C 67.715 52.635 *L 0.00157 *D AOI22XL
*I *1073:A1 I *C 62.495 59.885 *L 0.00278 *D AOI21X1
*I *1165:Y O *C 61.625 85.695 *L 0 *D AND2X1
*I *1113:B1 I *C 58.435 106.865 *L 0.00283 *D AOI22X1
*I *1349:A1 I *C 43.065 111.795 *L 0.0028 *D AOI22X1

*CAP
1 *440:1 1.83624e-05
2 *440:2 1.83624e-05
3 *440:3 5.75256e-05
4 *440:4 5.75256e-05
5 *440:5 0.00140709
6 *440:6 0.00188914
7 *440:7 2.1959e-05
8 *440:8 0.000527956
9 *440:9 2.1959e-05
10 *440:10 0.000153713
11 *440:11 4.59092e-05
12 *440:13 0.000153713
13 *440:16 0.00139776
14 *440:17 0.00139776
15 *440:18 7.63727e-05
16 *440:19 0.000363878
17 *440:20 2.34591e-05
18 *440:21 0.000287505
19 *440:22 2.34591e-05
20 *440:23 0.00183033
21 *440:25 0.00187361
22 *440:26 0.000382604
23 *440:27 4.32789e-05
24 *440:28 0.00040811
25 *440:30 0.000194755
26 *440:31 2.55069e-05
27 *440:32 0.000194755
28 *440:33 0.000586995
29 *440:34 2.55069e-05
30 *440:35 0.000586995
31 *440:36 2.55069e-05
32 *440:37 0.00253962
33 *440:39 0.00301223
34 *440:42 0.000472606
35 *440:44 0.000602999
36 *440:45 0.00275245
37 *440:46 0.00229482
38 *440:48 0.000145371
39 *440:49 7.87643e-05
40 *440:50 2.62548e-05
41 *440:51 7.87643e-05
42 *440:52 2.62548e-05
43 *440:54 0.00157095
44 *440:56 0.00157095
45 *440:57 0.00032811
46 *440:58 0.0015642
47 *440:59 2.04773e-05
48 *440:60 0.00123608
49 *440:61 2.04773e-05
50 *440:62 0.00035608
51 *440:64 0.00035608

*RES
1 *440:64 *1349:A1 1.4
2 *440:62 *440:64 2.2371
3 *440:61 *1113:B1 1.4
4 *440:60 *440:62 1.4
5 *440:59 *440:61 0.124283
6 *440:58 *440:60 6.58718
7 *440:58 *440:59 1.4
8 *440:57 *440:58 1.61568
9 *440:56 *440:57 1.4
10 *440:54 *440:56 8.20302
11 *440:53 *1165:Y 1.4
12 *440:52 *440:54 1.4
13 *440:51 *440:53 1.4
14 *440:50 *440:52 0.124289
15 *440:49 *440:51 0.372866
16 *440:48 *440:50 1.4
17 *440:46 *440:49 1.4
18 *440:46 *440:48 0.745732
19 *440:45 *1073:A1 1.4
20 *440:45 *440:46 11.0614
21 *440:44 *440:45 3.10709
22 *440:42 *440:44 1.4
23 *440:41 *1080:A0 1.4
24 *440:39 *440:42 2.23709
25 *440:39 *440:41 1.4
26 *440:38 *1093:B1 1.4
27 *440:37 *440:39 12.0558
28 *440:36 *440:38 1.4
29 *440:35 *440:37 1.4
30 *440:34 *440:36 0.124289
31 *440:33 *440:35 3.3558
32 *440:32 *440:34 1.4
33 *440:31 *440:33 1.4
34 *440:30 *440:32 1.1186
35 *440:28 *440:31 0.124289
36 *440:28 *440:30 1.4
37 *440:27 *1041:A1 1.4
38 *440:26 *440:28 1.86433
39 *440:25 *440:27 0.248578
40 *440:25 *440:26 1.4
41 *440:23 *440:25 9.94306
42 *440:22 *1114:B1 1.4
43 *440:21 *440:23 1.4
44 *440:20 *440:22 0.124288
45 *440:19 *440:21 1.36718
46 *440:19 *440:20 1.4
47 *440:18 *440:19 0.372866
48 *440:17 *440:18 1.4
49 *440:16 *440:17 7.20861
50 *440:13 *440:16 1.4
51 *440:12 *1067:A1 1.4
52 *440:11 *1048:C0 1.4
53 *440:10 *440:13 0.870021
54 *440:9 *440:12 1.4
55 *440:8 *440:11 0.248565
56 *440:8 *440:10 1.4
57 *440:7 *440:9 0.124289
58 *440:6 *440:8 2.60994
59 *440:6 *440:7 1.4
60 *440:5 *440:6 8.07847
61 *440:4 *440:5 1.4
62 *440:3 *440:4 0.37285
63 *440:2 *440:3 1.4
64 *440:1 *440:2 0.124288
65 *1047:B1 *440:1 1.4
*END

*D_NET *441 0.035622

*CONN
*I *1105:A0 I *C 64.815 33.785 *L 0.00157 *D AOI22XL
*I *1083:A1 I *C 78.445 33.495 *L 0.0028 *D AOI22X1
*I *1098:A1 I *C 106.865 37.265 *L 0.0028 *D AOI22X1
*I *1346:B1 I *C 114.405 52.635 *L 0.00163 *D AOI222XL
*I *1005:A1 I *C 92.945 78.735 *L 0.00268 *D AOI221X1
*I *1069:A1 I *C 68.875 85.695 *L 0.0028 *D AOI22X1
*I *1048:B1 I *C 105.705 83.955 *L 0.00163 *D AOI222XL
*I *1035:A1 I *C 105.705 104.835 *L 0.00268 *D AOI221X1
*I *1079:A1 I *C 113.535 99.905 *L 0.0028 *D AOI22X1
*I *1164:Y O *C 38.425 90.625 *L 0 *D NOR2X1

*CAP
1 *441:1 2.16089e-05
2 *441:2 2.16089e-05
3 *441:3 0.0012303
4 *441:4 0.00368994
5 *441:5 0.00245964
6 *441:7 0.000263726
7 *441:9 0.00127806
8 *441:10 0.00110682
9 *441:12 9.24919e-05
10 *441:13 8.31871e-05
11 *441:14 0.000573587
12 *441:15 8.31871e-05
13 *441:16 0.000573587
14 *441:17 0.00232205
15 *441:18 2.48248e-05
16 *441:19 0.00232205
17 *441:20 2.48248e-05
18 *441:21 6.58771e-05
19 *441:23 0.0011138
20 *441:24 0.000390228
21 *441:25 0.00319884
22 *441:26 0.00167569
23 *441:27 2.46401e-05
24 *441:28 0.00215092
25 *441:29 0.00128546
26 *441:30 6.58771e-05
27 *441:31 2.46401e-05
28 *441:32 0.000557257
29 *441:33 6.58771e-05
30 *441:34 6.58771e-05
31 *441:36 0.000969143
32 *441:37 0.000658771
33 *441:39 0.000411886
34 *441:41 0.000592894
35 *441:42 0.000360386
36 *441:44 0.00268309
37 *441:45 2.29546e-05
38 *441:46 0.000360386
39 *441:47 0.00268309
40 *441:48 2.29546e-05

*RES
1 *441:50 *1164:Y 1.4
2 *441:48 *1079:A1 1.4
3 *441:47 *441:50 1.4
4 *441:46 *1035:A1 1.4
5 *441:45 *441:48 0.124283
6 *441:44 *441:47 13.05
7 *441:42 *441:46 1.98853
8 *441:41 *441:45 1.4
9 *441:39 *441:44 1.4
10 *441:38 *1048:B1 1.4
11 *441:37 *441:42 1.4
12 *441:37 *441:41 3.3558
13 *441:36 *1069:A1 1.4
14 *441:36 *441:39 2.11291
15 *441:34 *441:38 1.4
16 *441:33 *441:37 0.372866
17 *441:32 *441:36 2.85864
18 *441:31 *1005:A1 1.4
19 *441:30 *441:34 0.372866
20 *441:29 *441:33 1.4
21 *441:28 *441:32 1.4
22 *441:27 *441:31 0.124289
23 *441:26 *441:30 1.4
24 *441:26 *441:29 6.95983
25 *441:25 *441:28 10.3157
26 *441:25 *441:27 1.4
27 *441:24 *441:26 2.11281
28 *441:23 *441:25 5.09561
29 *441:23 *441:24 1.4
30 *441:21 *441:23 0.372866
31 *441:20 *1346:B1 1.4
32 *441:19 *441:21 1.4
33 *441:18 *441:20 0.124289
34 *441:17 *441:19 11.6831
35 *441:16 *441:18 1.4
36 *441:15 *441:17 1.4
37 *441:14 *441:16 3.23151
38 *441:13 *441:15 0.497132
39 *441:12 *441:14 1.4
40 *441:10 *441:13 1.4
41 *441:10 *441:12 0.497147
42 *441:9 *1098:A1 1.4
43 *441:9 *441:10 6.21416
44 *441:7 *441:9 1.61568
45 *441:6 *1083:A1 1.4
46 *441:5 *441:7 1.4
47 *441:4 *441:6 1.4
48 *441:4 *441:5 12.1802
49 *441:3 *441:4 5.84157
50 *441:2 *441:3 1.4
51 *441:1 *441:2 0.124283
52 *1105:A0 *441:1 1.4
*END

*D_NET *442 0.0290692

*CONN
*I *1105:B0 I *C 65.975 33.785 *L 0.00159 *D AOI22XL
*I *1083:B1 I *C 77.865 33.785 *L 0.00283 *D AOI22X1
*I *1041:C0 I *C 101.935 43.935 *L 0.00166 *D AOI222XL
*I *1098:B1 I *C 106.285 36.975 *L 0.00283 *D AOI22X1
*I *1109:A1 I *C 93.235 70.035 *L 0.0028 *D AOI22X1
*I *1108:B1 I *C 94.685 91.205 *L 0.00283 *D AOI22X1
*I *1069:B1 I *C 69.455 85.985 *L 0.00283 *D AOI22X1
*I *1150:Y O *C 64.6075 91.205 *L 0 *D CLKINVX1
*I *1065:A1 I *C 109.475 105.125 *L 0.0028 *D AOI22X1
*I *1035:B1 I *C 105.125 104.835 *L 0.00268 *D AOI221X1

*CAP
1 *442:1 6.48267e-05
2 *442:2 6.48267e-05
3 *442:3 0.00107354
4 *442:4 0.00109972
5 *442:5 2.61838e-05
6 *442:6 6.48267e-05
7 *442:7 8.64356e-05
8 *442:8 6.48267e-05
9 *442:9 8.64356e-05
10 *442:11 0.0020919
11 *442:12 0.0020919
12 *442:13 0.000108197
13 *442:14 0.000605905
14 *442:15 0.000497708
15 *442:16 0.000351988
16 *442:18 0.000765207
17 *442:19 0.000351988
18 *442:20 0.000765207
19 *442:21 2.02866e-05
20 *442:22 0.00205946
21 *442:23 2.02866e-05
22 *442:24 0.00343029
23 *442:26 0.00137083
24 *442:28 0.00220007
25 *442:29 0.000128479
26 *442:30 0.00207159
27 *442:31 0.000394241
28 *442:32 0.000436114
29 *442:33 0.00156653
30 *442:34 0.000387657
31 *442:35 4.84572e-05
32 *442:36 0.00117229
33 *442:38 0.000498841
34 *442:39 5.25096e-05
35 *442:40 0.000886067
36 *442:41 0.000498841
37 *442:42 5.25096e-05
38 *442:43 0.00117369
39 *442:44 7.10148e-06
40 *442:46 0.000287628
41 *442:47 1.83624e-05
42 *442:48 7.10148e-06
43 *442:51 1.83624e-05

*RES
1 *442:51 *1035:B1 1.4
2 *442:50 *1065:A1 1.4
3 *442:48 *1150:Y 1.4
4 *442:47 *442:51 0.124288
5 *442:46 *442:50 1.4
6 *442:45 *1069:B1 1.4
7 *442:44 *442:48 0.0364295
8 *442:43 *442:47 1.4
9 *442:43 *442:46 1.86425
10 *442:42 *442:45 1.4
11 *442:41 *442:44 1.4
12 *442:40 *442:43 4.47418
13 *442:39 *442:42 0.248577
14 *442:38 *442:41 2.36149
15 *442:36 *442:40 1.4
16 *442:35 *442:39 1.4
17 *442:34 *442:38 1.4
18 *442:33 *1108:B1 1.4
19 *442:33 *442:36 5.96586
20 *442:32 *442:35 0.248577
21 *442:32 *442:34 1.98862
22 *442:31 *442:33 1.98862
23 *442:30 *442:32 1.4
24 *442:29 *442:31 1.4
25 *442:28 *442:30 9.9428
26 *442:28 *442:29 0.621414
27 *442:26 *442:28 1.4
28 *442:24 *1109:A1 1.4
29 *442:24 *442:26 7.08444
30 *442:23 *1098:B1 1.4
31 *442:22 *442:24 11.1859
32 *442:21 *442:23 0.124283
33 *442:20 *442:22 1.4
34 *442:19 *442:21 1.4
35 *442:18 *442:20 3.72866
36 *442:16 *442:19 1.86429
37 *442:15 *442:18 1.4
38 *442:15 *1041:C0 1.4
39 *442:14 *442:16 1.4
40 *442:14 *442:15 2.85864
41 *442:13 *442:14 0.621444
42 *442:12 *442:13 1.4
43 *442:11 *442:12 10.1917
44 *442:9 *442:11 1.4
45 *442:8 *1083:B1 1.4
46 *442:7 *442:9 0.497134
47 *442:6 *442:8 0.37285
48 *442:5 *442:7 1.4
49 *442:4 *442:6 1.4
50 *442:4 *442:5 0.124289
51 *442:3 *442:4 5.09584
52 *442:2 *442:3 1.4
53 *442:1 *442:2 0.37285
54 *1105:B0 *442:1 1.4
*END

*D_NET *443 0.0301015

*CONN
*I *1090:B1 I *C 92.655 33.785 *L 0.00283 *D AOI22X1
*I *1074:B1 I *C 88.305 33.785 *L 0.00283 *D AOI22X1
*I *1347:A1 I *C 75.255 68.295 *L 0.00168 *D AO22XL
*I *1082:B1 I *C 73.805 33.785 *L 0.00283 *D AOI22X1
*I *1006:B1 I *C 55.825 33.785 *L 0.00268 *D AOI221X1
*I *1127:B I *C 88.015 78.445 *L 0.00167 *D NAND2XL
*I *1149:Y O *C 74.965 94.685 *L 0 *D INVX2
*I *1039:B0 I *C 74.385 96.425 *L 0.00159 *D AOI22XL
*I *1044:A1 I *C 85.695 110.055 *L 0.00278 *D AOI21X1
*I *1092:B1 I *C 56.115 117.305 *L 0.00283 *D AOI22X1

*CAP
1 *443:1 4.32789e-05
2 *443:2 4.32789e-05
3 *443:3 0.000382604
4 *443:4 0.00153752
5 *443:5 4.32789e-05
6 *443:6 0.00115492
7 *443:7 4.32789e-05
8 *443:8 0.00271082
9 *443:10 0.00351186
10 *443:11 4.32178e-05
11 *443:12 0.000844253
12 *443:14 0.000130919
13 *443:15 2.62548e-05
14 *443:16 0.00175432
15 *443:17 0.00113648
16 *443:19 0.0016234
17 *443:20 0.0011872
18 *443:21 0.00111023
19 *443:24 0.0011872
20 *443:27 2.62548e-05
21 *443:29 2.62548e-05
22 *443:30 0.000314972
23 *443:31 0.000314972
24 *443:32 0.000183783
25 *443:33 0.000105019
26 *443:34 0.000131274
27 *443:35 0.00102464
28 *443:36 0.000145371
29 *443:37 0.000157529
30 *443:38 0.00102464
31 *443:39 0.000145371
32 *443:41 0.000105019
33 *443:42 0.000751555
34 *443:45 0.00161848
35 *443:46 0.000751555
36 *443:47 0.00161848
37 *443:48 4.09329e-05
38 *443:49 0.00148912
39 *443:50 4.09329e-05
40 *443:51 0.00148912
41 *443:53 4.09545e-05
42 *443:54 4.09545e-05

*RES
1 *443:54 *1092:B1 1.4
2 *443:53 *443:54 0.248567
3 *443:51 *443:53 1.4
4 *443:50 *1044:A1 1.4
5 *443:49 *443:51 7.33269
6 *443:48 *443:50 0.248578
7 *443:47 *443:49 1.4
8 *443:46 *443:48 1.4
9 *443:45 *443:47 9.19712
10 *443:42 *443:46 3.72849
11 *443:41 *443:45 1.4
12 *443:40 *1039:B0 1.4
13 *443:39 *1149:Y 1.4
14 *443:38 *443:42 1.4
15 *443:37 *443:41 0.497155
16 *443:37 *443:40 1.4
17 *443:36 *443:39 0.745732
18 *443:35 *443:38 5.5929
19 *443:34 *443:37 0.248577
20 *443:34 *443:36 1.4
21 *443:33 *443:35 1.4
22 *443:32 *443:34 0.372866
23 *443:32 *443:33 0.497155
24 *443:31 *443:32 1.4
25 *443:30 *443:31 1.61575
26 *443:29 *443:30 1.4
27 *443:27 *443:29 0.124289
28 *443:25 *1127:B 1.4
29 *443:24 *443:27 1.4
30 *443:23 *1006:B1 1.4
31 *443:21 *443:25 1.4
32 *443:20 *443:24 6.09015
33 *443:19 *443:23 1.4
34 *443:18 *1082:B1 1.4
35 *443:17 *443:21 5.34422
36 *443:17 *443:20 1.4
37 *443:16 *443:19 7.7059
38 *443:16 *443:18 1.4
39 *443:15 *443:17 0.124289
40 *443:14 *443:16 0.621444
41 *443:12 *443:15 1.4
42 *443:11 *443:14 1.4
43 *443:10 *1347:A1 1.4
44 *443:10 *443:12 4.34993
45 *443:8 *443:11 0.248567
46 *443:8 *443:10 14.5412
47 *443:7 *1074:B1 1.4
48 *443:6 *443:8 1.4
49 *443:5 *443:7 0.248578
50 *443:4 *443:6 5.59299
51 *443:4 *443:5 1.4
52 *443:3 *443:4 1.86433
53 *443:2 *443:3 1.4
54 *443:1 *443:2 0.248578
55 *1090:B1 *443:1 1.4
*END

*D_NET *444 0.0186825

*CONN
*I *1123:B I *C 87.145 83.665 *L 0.00167 *D NAND2XL
*I *1107:B0 I *C 82.795 73.515 *L 0.00159 *D AOI22XL
*I *1057:B0 I *C 67.425 59.885 *L 0.00165 *D AOI32XL
*I *1161:Y O *C 54.375 83.375 *L 0 *D NOR2XL
*I *1101:B1 I *C 53.795 52.635 *L 0.00283 *D AOI22X1
*I *1091:B0 I *C 90.915 52.635 *L 0.00159 *D AOI22XL
*I *1072:B0 I *C 86.565 52.635 *L 0.00159 *D AOI22XL
*I *1087:B0 I *C 55.245 85.985 *L 0.00159 *D AOI22XL

*CAP
1 *444:2 2.56958e-05
2 *444:3 2.56958e-05
3 *444:4 0.000842917
4 *444:5 0.000842917
5 *444:6 0.00041819
6 *444:7 5.22737e-05
7 *444:8 0.000365916
8 *444:9 0.00110258
9 *444:11 0.00110258
10 *444:13 5.22737e-05
11 *444:14 0.00180791
12 *444:15 0.000563019
13 *444:16 0.00293715
14 *444:17 0.000586478
15 *444:19 0.00123403
16 *444:20 0.000365916
17 *444:21 2.34591e-05
18 *444:23 0.00195562
19 *444:24 5.25118e-05
20 *444:25 0.000365916
21 *444:26 2.61369e-05
22 *444:27 0.00207676
23 *444:28 0.000602999
24 *444:29 2.34591e-05
25 *444:30 2.61369e-05
26 *444:31 0.000121143
27 *444:33 0.000602999
28 *444:34 2.34591e-05
29 *444:36 0.000105019
30 *444:40 0.000105019
31 *444:41 9.69143e-05
32 *444:42 9.69143e-05
33 *444:43 2.62548e-05
34 *444:44 2.62548e-05

*RES
1 *444:45 *1087:B0 1.4
2 *444:44 *444:45 1.4
3 *444:43 *444:44 0.124289
4 *444:42 *444:43 1.4
5 *444:41 *444:42 0.497155
6 *444:40 *444:41 1.4
7 *444:36 *444:40 0.497155
8 *444:35 *1072:B0 1.4
9 *444:34 *1091:B0 1.4
10 *444:33 *1101:B1 1.4
11 *444:31 *444:36 1.4
12 *444:30 *444:35 1.4
13 *444:29 *444:34 0.124288
14 *444:28 *444:33 3.10709
15 *444:27 *1161:Y 1.4
16 *444:27 *444:31 0.621444
17 *444:26 *444:30 0.124289
18 *444:25 *444:29 1.4
19 *444:24 *444:28 1.4
20 *444:23 *444:27 10.0671
21 *444:21 *444:26 1.4
22 *444:20 *444:25 1.74004
23 *444:19 *444:24 0.248566
24 *444:19 *444:23 1.4
25 *444:18 *1057:B0 1.4
26 *444:17 *444:21 0.124288
27 *444:17 *444:20 1.4
28 *444:16 *444:19 5.59273
29 *444:16 *444:18 1.4
30 *444:15 *444:17 2.98291
31 *444:14 *444:16 8.32713
32 *444:14 *444:15 1.4
33 *444:13 *444:14 0.248578
34 *444:11 *444:13 1.4
35 *444:10 *1107:B0 1.4
36 *444:9 *444:11 5.84154
37 *444:8 *444:10 1.4
38 *444:7 *444:9 1.4
39 *444:6 *444:8 1.74004
40 *444:6 *444:7 0.248578
41 *444:5 *444:6 1.4
42 *444:4 *444:5 4.35009
43 *444:3 *444:4 1.4
44 *444:2 *444:3 0.124283
45 *444:1 *444:2 1.4
46 *1123:B *444:1 1.4
*END

*D_NET *445 0.0203999

*CONN
*I *1091:A0 I *C 89.755 52.635 *L 0.00157 *D AOI22XL
*I *1072:A0 I *C 85.405 52.635 *L 0.00157 *D AOI22XL
*I *1107:A0 I *C 81.635 73.515 *L 0.00157 *D AOI22XL
*I *1101:A1 I *C 53.215 52.925 *L 0.0028 *D AOI22X1
*I *1043:B1 I *C 77.865 94.395 *L 0.00283 *D AOI22X1
*I *1087:A0 I *C 54.085 85.985 *L 0.00157 *D AOI22XL
*I *1160:Y O *C 49.445 91.785 *L 0 *D NOR2XL

*CAP
1 *445:1 4.69183e-05
2 *445:2 4.69183e-05
3 *445:3 0.000392053
4 *445:4 0.000731832
5 *445:5 4.69183e-05
6 *445:6 0.000339779
7 *445:7 4.69183e-05
8 *445:8 0.0016656
9 *445:10 0.00164214
10 *445:11 2.34591e-05
11 *445:13 0.000182958
12 *445:14 0.00257171
13 *445:15 0.000182958
14 *445:16 0.00257171
15 *445:17 0.00106468
16 *445:19 0.00106468
17 *445:21 0.000155013
18 *445:22 0.0023079
19 *445:23 0.0006784
20 *445:24 0.00255824
21 *445:25 0.0006784
22 *445:26 2.42286e-05
23 *445:27 0.000405344
24 *445:29 2.42286e-05
25 *445:30 0.000473462
26 *445:32 0.000473462

*RES
1 *445:32 *1160:Y 1.4
2 *445:30 *445:32 2.36149
3 *445:29 *1087:A0 1.4
4 *445:27 *445:30 1.4
5 *445:26 *445:29 0.124289
6 *445:25 *1043:B1 1.4
7 *445:24 *445:27 1.98856
8 *445:24 *445:26 1.4
9 *445:23 *445:25 3.48008
10 *445:22 *445:24 10.1917
11 *445:22 *445:23 1.4
12 *445:21 *445:22 0.745706
13 *445:19 *445:21 1.4
14 *445:18 *1101:A1 1.4
15 *445:17 *445:19 5.46869
16 *445:16 *445:18 1.4
17 *445:15 *445:17 1.4
18 *445:14 *445:16 12.1798
19 *445:13 *445:15 0.870021
20 *445:11 *445:14 1.4
21 *445:10 *445:13 1.4
22 *445:10 *1107:A0 1.4
23 *445:8 *445:11 0.124288
24 *445:8 *445:10 8.70017
25 *445:7 *1072:A0 1.4
26 *445:6 *445:8 1.4
27 *445:5 *445:7 0.248576
28 *445:4 *445:6 1.61575
29 *445:4 *445:5 1.4
30 *445:3 *445:4 1.86433
31 *445:2 *445:3 1.4
32 *445:1 *445:2 0.248576
33 *1091:A0 *445:1 1.4
*END

*D_NET *446 0.000820039

*CONN
*I *1049:A1 I *C 62.205 106.575 *L 0.0028 *D AOI22X1
*I *1148:Y O *C 65.975 106.575 *L 0 *D AO22XL

*CAP
1 *446:1 4.09545e-05
2 *446:2 4.09545e-05
3 *446:3 0.00032811
4 *446:4 0.00032811
5 *446:5 4.09545e-05
6 *446:6 4.09545e-05

*RES
1 *446:6 *1148:Y 1.4
2 *446:5 *446:6 0.248567
3 *446:4 *446:5 1.4
4 *446:3 *446:4 1.61568
5 *446:2 *446:3 1.4
6 *446:1 *446:2 0.248567
7 *1049:A1 *446:1 1.4
*END

*D_NET *447 0.000536163

*CONN
*I *1055:B I *C 14.645 104.545 *L 0.00172 *D AND2X1
*I *1147:Y O *C 14.935 101.065 *L 0 *D AOI22XL

*CAP
1 *447:2 1.76828e-05
2 *447:3 1.76828e-05
3 *447:4 0.000250399
4 *447:5 0.000250399

*RES
1 *447:5 *1147:Y 1.4
2 *447:4 *447:5 1.49139
3 *447:3 *447:4 1.4
4 *447:2 *447:3 0.124284
5 *447:1 *447:2 1.4
6 *1055:B *447:1 1.4
*END

*D_NET *448 0.000822043

*CONN
*I *1046:A1 I *C 84.535 78.445 *L 0.00274 *D OAI21X1
*I *1146:Y O *C 81.055 79.025 *L 0 *D AOI22X1

*CAP
1 *448:1 2.40496e-05
2 *448:2 2.40496e-05
3 *448:3 0.000313642
4 *448:4 0.000313642
5 *448:5 7.33297e-05
6 *448:6 7.33297e-05

*RES
1 *448:6 *1146:Y 1.4
2 *448:5 *448:6 0.372866
3 *448:4 *448:5 1.4
4 *448:3 *448:4 1.49146
5 *448:2 *448:3 1.4
6 *448:1 *448:2 0.124288
7 *1046:A1 *448:1 1.4
*END

*D_NET *449 0.00101634

*CONN
*I *1026:A1 I *C 22.185 101.645 *L 0.00278 *D AOI21X1
*I *1145:Y O *C 17.835 105.125 *L 0 *D AOI22X1

*CAP
1 *449:1 0.000225641
2 *449:2 0.000225641
3 *449:3 0.000265242
4 *449:4 0.000265242
5 *449:5 1.7287e-05
6 *449:6 1.7287e-05

*RES
1 *449:6 *1145:Y 1.4
2 *449:5 *449:6 0.124288
3 *449:4 *449:5 1.4
4 *449:3 *449:4 1.86425
5 *449:2 *449:3 1.4
6 *449:1 *449:2 1.36712
7 *1026:A1 *449:1 1.4
*END

*D_NET *450 0.000667198

*CONN
*I *1055:A I *C 14.065 104.545 *L 0.00178 *D AND2X1
*I *1144:Y O *C 10.295 106.285 *L 0 *D AOI22XL

*CAP
1 *450:1 8.64351e-05
2 *450:2 8.64351e-05
3 *450:3 0.000229877
4 *450:4 0.000229877
5 *450:5 1.7287e-05
6 *450:6 1.7287e-05

*RES
1 *450:6 *1144:Y 1.4
2 *450:5 *450:6 0.124288
3 *450:4 *450:5 1.4
4 *450:3 *450:4 1.61569
5 *450:2 *450:3 1.4
6 *450:1 *450:2 0.621438
7 *1055:A *450:1 1.4
*END

*D_NET *451 0.000451765

*CONN
*I *1043:A1 I *C 77.285 94.685 *L 0.0028 *D AOI22X1
*I *1143:Y O *C 78.445 96.135 *L 0 *D AO22XL

*CAP
1 *451:2 7.87643e-05
2 *451:3 7.87643e-05
3 *451:4 0.000121143
4 *451:5 0.000121143
5 *451:6 2.59753e-05
6 *451:7 2.59753e-05

*RES
1 *451:8 *1143:Y 1.4
2 *451:7 *451:8 1.4
3 *451:6 *451:7 0.124286
4 *451:5 *451:6 1.4
5 *451:4 *451:5 0.621444
6 *451:3 *451:4 1.4
7 *451:2 *451:3 0.372866
8 *451:1 *451:2 1.4
9 *1043:A1 *451:1 1.4
*END

*D_NET *452 0.00198776

*CONN
*I *1058:B0 I *C 34.945 104.545 *L 0.00277 *D AOI21X1
*I *1142:Y O *C 31.755 115.565 *L 0 *D OAI21X1

*CAP
1 *452:1 0.000672595
2 *452:2 0.000672595
3 *452:3 0.000242154
4 *452:4 0.000242154
5 *452:5 7.91288e-05
6 *452:6 7.91288e-05

*RES
1 *452:6 *1142:Y 1.4
2 *452:5 *452:6 0.497133
3 *452:4 *452:5 1.4
4 *452:3 *452:4 1.36718
5 *452:2 *452:3 1.4
6 *452:1 *452:2 4.22563
7 *1058:B0 *452:1 1.4
*END

*D_NET *453 0.00177126

*CONN
*I *1011:A1 I *C 85.985 86.275 *L 0.00278 *D OAI211X1
*I *1141:Y O *C 81.925 89.465 *L 0 *D AOI22X1

*CAP
1 *453:2 0.000102783
2 *453:3 0.000102783
3 *453:4 0.000295681
4 *453:5 0.000295681
5 *453:6 0.000462524
6 *453:7 0.000462524
7 *453:8 2.46401e-05
8 *453:9 2.46401e-05

*RES
1 *453:9 *1141:Y 1.4
2 *453:8 *453:9 0.124289
3 *453:7 *453:8 1.4
4 *453:6 *453:7 2.23709
5 *453:5 *453:6 1.4
6 *453:4 *453:5 1.49146
7 *453:3 *453:4 1.4
8 *453:2 *453:3 0.497131
9 *453:1 *453:2 1.4
10 *1011:A1 *453:1 1.4
*END

*D_NET *454 0.000726857

*CONN
*I *1002:A1 I *C 65.105 81.055 *L 0.00278 *D OAI211X1
*I *1140:Y O *C 65.105 85.405 *L 0 *D AOI22XL

*CAP
1 *454:1 0.000363429
2 *454:2 0.000363429

*RES
1 *454:2 *1140:Y 1.4
2 *454:1 *454:2 1.86433
3 *1002:A1 *454:1 1.4
*END

*D_NET *455 0.000450254

*CONN
*I *1056:AN I *C 23.635 107.155 *L 0.00174 *D NOR2BX1
*I *1139:Y O *C 23.925 110.635 *L 0 *D AOI22XL

*CAP
1 *455:2 1.76828e-05
2 *455:3 1.76828e-05
3 *455:4 0.000207444
4 *455:5 0.000207444

*RES
1 *455:5 *1139:Y 1.4
2 *455:4 *455:5 1.49145
3 *455:3 *455:4 1.4
4 *455:2 *455:3 0.124284
5 *455:1 *455:2 1.4
6 *1056:AN *455:1 1.4
*END

*D_NET *456 0.00113578

*CONN
*I *1056:B I *C 24.215 106.865 *L 0.0028 *D NOR2BX1
*I *1138:Y O *C 30.015 105.125 *L 0 *D AO22XL

*CAP
1 *456:1 1.7287e-05
2 *456:2 1.7287e-05
3 *456:3 0.000412127
4 *456:4 0.000412127
5 *456:5 0.000138475
6 *456:6 0.000138475

*RES
1 *456:6 *1138:Y 1.4
2 *456:5 *456:6 0.869982
3 *456:4 *456:5 1.4
4 *456:3 *456:4 2.48574
5 *456:2 *456:3 1.4
6 *456:1 *456:2 0.124288
7 *1056:B *456:1 1.4
*END

*D_NET *457 0.000739463

*CONN
*I *1031:C I *C 22.185 75.835 *L 0.00278 *D NOR3X1
*I *1137:Y O *C 22.765 79.025 *L 0 *D OAI21X1

*CAP
1 *457:2 2.06397e-05
2 *457:3 2.06397e-05
3 *457:4 0.000266928
4 *457:5 0.000266928
5 *457:6 6.11421e-05
6 *457:7 6.11421e-05
7 *457:8 2.10222e-05
8 *457:9 2.10222e-05

*RES
1 *457:9 *1137:Y 1.4
2 *457:8 *457:9 0.124283
3 *457:7 *457:8 1.4
4 *457:6 *457:7 0.372849
5 *457:5 *457:6 1.4
6 *457:4 *457:5 1.4914
7 *457:3 *457:4 1.4
8 *457:2 *457:3 0.124283
9 *457:1 *457:2 1.4
10 *1031:C *457:1 1.4
*END

*D_NET *458 0.00168501

*CONN
*I *1054:A I *C 14.065 70.615 *L 0.00157 *D NAND2XL
*I *1136:Y O *C 12.905 80.475 *L 0 *D AOI22X1

*CAP
1 *458:2 4.12795e-05
2 *458:3 4.12795e-05
3 *458:4 0.000760463
4 *458:5 0.000760463
5 *458:6 4.07614e-05
6 *458:7 4.07614e-05

*RES
1 *458:8 *1136:Y 1.4
2 *458:7 *458:8 1.4
3 *458:6 *458:7 0.248566
4 *458:5 *458:6 1.4
5 *458:4 *458:5 4.22563
6 *458:3 *458:4 1.4
7 *458:2 *458:3 0.248566
8 *458:1 *458:2 1.4
9 *1054:A *458:1 1.4
*END

*D_NET *459 0.000855092

*CONN
*I *1054:B I *C 14.645 70.615 *L 0.00167 *D NAND2XL
*I *1135:Y O *C 10.875 68.585 *L 0 *D AOI22X1

*CAP
1 *459:1 0.000113735
2 *459:2 0.000113735
3 *459:3 0.000268317
4 *459:4 0.000268317
5 *459:5 4.54941e-05
6 *459:6 4.54941e-05

*RES
1 *459:6 *1135:Y 1.4
2 *459:5 *459:6 0.248567
3 *459:4 *459:5 1.4
4 *459:3 *459:4 1.61568
5 *459:2 *459:3 1.4
6 *459:1 *459:2 0.621418
7 *1054:B *459:1 1.4
*END

*D_NET *460 0.000909705

*CONN
*I *1085:B I *C 82.215 107.155 *L 0.00171 *D NOR2XL
*I *1134:Y O *C 79.315 105.415 *L 0 *D AOI22XL

*CAP
1 *460:1 4.09329e-05
2 *460:2 4.09329e-05
3 *460:3 0.000250188
4 *460:4 0.000250188
5 *460:5 0.000163732
6 *460:6 0.000163732

*RES
1 *460:6 *1134:Y 1.4
2 *460:5 *460:6 0.99431
3 *460:4 *460:5 1.4
4 *460:3 *460:4 1.24283
5 *460:2 *460:3 1.4
6 *460:1 *460:2 0.248578
7 *1085:B *460:1 1.4
*END

*D_NET *461 0.00208257

*CONN
*I *1031:B I *C 22.475 75.545 *L 0.00272 *D NOR3X1
*I *1133:Y O *C 15.515 68.585 *L 0 *D AOI221X1

*CAP
1 *461:1 2.2747e-05
2 *461:2 2.2747e-05
3 *461:3 0.000433434
4 *461:4 0.000433434
5 *461:5 0.000523182
6 *461:6 0.000523182
7 *461:7 6.19192e-05
8 *461:8 6.19192e-05

*RES
1 *461:9 *1133:Y 1.4
2 *461:8 *461:9 1.4
3 *461:7 *461:8 0.372849
4 *461:6 *461:7 1.4
5 *461:5 *461:6 2.85852
6 *461:4 *461:5 1.4
7 *461:3 *461:4 2.60994
8 *461:2 *461:3 1.4
9 *461:1 *461:2 0.124284
10 *1031:B *461:1 1.4
*END

*D_NET *462 0.00079569

*CONN
*I *1038:C0 I *C 27.405 83.955 *L 0.00281 *D AOI211X1
*I *1132:Y O *C 28.565 80.475 *L 0 *D OAI21X1

*CAP
1 *462:1 4.98381e-05
2 *462:2 4.98381e-05
3 *462:3 4.94081e-05
4 *462:4 4.94081e-05
5 *462:5 0.000249191
6 *462:6 0.000249191
7 *462:7 4.94081e-05
8 *462:8 4.94081e-05

*RES
1 *462:9 *1132:Y 1.4
2 *462:8 *462:9 1.4
3 *462:7 *462:8 0.248566
4 *462:6 *462:7 1.4
5 *462:5 *462:6 1.24289
6 *462:4 *462:5 1.4
7 *462:3 *462:4 0.248566
8 *462:2 *462:3 1.4
9 *462:1 *462:2 0.248578
10 *1038:C0 *462:1 1.4
*END

*D_NET *463 0.000554213

*CONN
*I *948:A I *C 46.545 41.905 *L 0.00178 *D AND2X1
*I *1131:Y O *C 45.685 44.225 *L 0 *D NOR2BX1

*CAP
1 *463:2 7.56469e-05
2 *463:3 7.56469e-05
3 *463:4 0.000200595
4 *463:5 0.000201459
5 *463:6 8.64633e-07

*RES
1 *463:6 *1131:Y 1.4
2 *463:5 *463:6 0.00428581
3 *463:4 *463:5 0.994308
4 *463:3 *463:4 1.4
5 *463:2 *463:3 0.372849
6 *463:1 *463:2 1.4
7 *948:A *463:1 1.4
*END

*D_NET *464 0.000816512

*CONN
*I *1060:C0 I *C 11.455 86.275 *L 0.00277 *D AOI221X1
*I *1130:Y O *C 5.945 86.565 *L 0 *D NOR2XL

*CAP
1 *464:1 2.10222e-05
2 *464:2 2.10222e-05
3 *464:3 0.000387234
4 *464:4 0.000387234

*RES
1 *464:5 *1130:Y 1.4
2 *464:4 *464:5 1.4
3 *464:3 *464:4 2.36138
4 *464:2 *464:3 1.4
5 *464:1 *464:2 0.124283
6 *1060:C0 *464:1 1.4
*END

*D_NET *465 0.00152923

*CONN
*I *1118:B0 I *C 27.695 68.005 *L 0.00277 *D AOI21X1
*I *1129:Y O *C 28.855 60.465 *L 0 *D NOR2XL

*CAP
1 *465:2 4.86762e-05
2 *465:3 4.86762e-05
3 *465:4 0.000667262
4 *465:5 0.000667262
5 *465:6 4.86762e-05
6 *465:7 4.86762e-05

*RES
1 *465:8 *1129:Y 1.4
2 *465:7 *465:8 1.4
3 *465:6 *465:7 0.248565
4 *465:5 *465:6 1.4
5 *465:4 *465:5 3.23135
6 *465:3 *465:4 1.4
7 *465:2 *465:3 0.248565
8 *465:1 *465:2 1.4
9 *1118:B0 *465:1 1.4
*END

*D_NET *466 0.000655041

*CONN
*I *954:A I *C 50.895 36.685 *L 0.00173 *D OR2X1
*I *1128:Y O *C 47.705 37.265 *L 0 *D NAND2XL

*CAP
1 *466:1 5.01487e-05
2 *466:2 5.01487e-05
3 *466:3 0.000277372
4 *466:4 0.000277372

*RES
1 *466:5 *1128:Y 1.4
2 *466:4 *466:5 1.4
3 *466:3 *466:4 1.36711
4 *466:2 *466:3 1.4
5 *466:1 *466:2 0.248577
6 *954:A *466:1 1.4
*END

*D_NET *467 0.000661756

*CONN
*I *1046:B0 I *C 85.115 78.735 *L 0.0028 *D OAI21X1
*I *1127:Y O *C 88.015 79.025 *L 0 *D NAND2XL

*CAP
1 *467:1 4.92801e-05
2 *467:2 4.92801e-05
3 *467:3 0.000256958
4 *467:4 0.000256958
5 *467:5 2.46401e-05
6 *467:6 2.46401e-05

*RES
1 *467:6 *1127:Y 1.4
2 *467:5 *467:6 0.124289
3 *467:4 *467:5 1.4
4 *467:3 *467:4 1.24283
5 *467:2 *467:3 1.4
6 *467:1 *467:2 0.248577
7 *1046:B0 *467:1 1.4
*END

*D_NET *468 0.000606857

*CONN
*I *981:B0 I *C 50.895 106.865 *L 0.00278 *D AOI211X1
*I *1126:Y O *C 50.025 110.345 *L 0 *D AND2X1

*CAP
1 *468:2 4.4028e-05
2 *468:3 4.4028e-05
3 *468:4 0.000237387
4 *468:5 0.000237387
5 *468:6 2.2014e-05
6 *468:7 2.2014e-05

*RES
1 *468:8 *1126:Y 1.4
2 *468:7 *468:8 1.4
3 *468:6 *468:7 0.124289
4 *468:5 *468:6 1.4
5 *468:4 *468:5 1.4914
6 *468:3 *468:4 1.4
7 *468:2 *468:3 0.248578
8 *468:1 *468:2 1.4
9 *981:B0 *468:1 1.4
*END

*D_NET *469 0.000779539

*CONN
*I *1002:B0 I *C 65.395 81.055 *L 0.0028 *D OAI211X1
*I *1125:Y O *C 61.625 80.475 *L 0 *D NAND2XL

*CAP
1 *469:1 2.42286e-05
2 *469:2 2.42286e-05
3 *469:3 0.000341312
4 *469:4 0.000341312
5 *469:5 2.42286e-05
6 *469:6 2.42286e-05

*RES
1 *469:6 *1125:Y 1.4
2 *469:5 *469:6 0.124289
3 *469:4 *469:5 1.4
4 *469:3 *469:4 1.61575
5 *469:2 *469:3 1.4
6 *469:1 *469:2 0.124289
7 *1002:B0 *469:1 1.4
*END

*D_NET *470 0.00100498

*CONN
*I *1073:B0 I *C 62.785 60.175 *L 0.00277 *D AOI21X1
*I *1124:Y O *C 57.82 60.115 *L 0 *D NOR2BXL

*CAP
1 *470:1 2.412e-05
2 *470:2 2.412e-05
3 *470:3 0.00044635
4 *470:4 0.00044635
5 *470:5 2.91103e-05
6 *470:6 3.20213e-05
7 *470:7 2.91103e-06

*RES
1 *470:7 *1124:Y 1.4
2 *470:6 *470:7 0.0149997
3 *470:5 *470:6 0.149997
4 *470:4 *470:5 1.4
5 *470:3 *470:4 2.11281
6 *470:2 *470:3 1.4
7 *470:1 *470:2 0.124284
8 *1073:B0 *470:1 1.4
*END

*D_NET *471 0.000499135

*CONN
*I *1011:B0 I *C 86.275 86.275 *L 0.0028 *D OAI211X1
*I *1123:Y O *C 87.145 84.245 *L 0 *D NAND2XL

*CAP
1 *471:2 5.13916e-05
2 *471:3 5.13916e-05
3 *471:4 0.00017248
4 *471:5 0.00017248
5 *471:6 2.56958e-05
6 *471:7 2.56958e-05

*RES
1 *471:8 *1123:Y 1.4
2 *471:7 *471:8 1.4
3 *471:6 *471:7 0.124283
4 *471:5 *471:6 1.4
5 *471:4 *471:5 0.870021
6 *471:3 *471:4 1.4
7 *471:2 *471:3 0.248566
8 *471:1 *471:2 1.4
9 *1011:B0 *471:1 1.4
*END

*D_NET *472 0.00123824

*CONN
*I *1051:C0 I *C 19.575 83.955 *L 0.00281 *D AOI211X1
*I *1122:Y O *C 24.795 80.475 *L 0 *D OAI21X1

*CAP
1 *472:1 0.000252266
2 *472:2 0.000252266
3 *472:3 0.000366853
4 *472:4 0.000366853

*RES
1 *472:5 *1122:Y 1.4
2 *472:4 *472:5 1.4
3 *472:3 *472:4 2.2371
4 *472:2 *472:3 1.4
5 *472:1 *472:2 1.49139
6 *1051:C0 *472:1 1.4
*END

*D_NET *473 0.000586342

*CONN
*I *1023:A1 I *C 25.085 54.375 *L 0.0028 *D AOI22X1
*I *1121:Y O *C 21.605 54.375 *L 0 *D MXI2XL

*CAP
1 *473:1 2.2747e-05
2 *473:2 2.2747e-05
3 *473:3 0.000247677
4 *473:4 0.000247677
5 *473:5 2.2747e-05
6 *473:6 2.2747e-05

*RES
1 *473:6 *1121:Y 1.4
2 *473:5 *473:6 0.124284
3 *473:4 *473:5 1.4
4 *473:3 *473:4 1.4914
5 *473:2 *473:3 1.4
6 *473:1 *473:2 0.124284
7 *1023:A1 *473:1 1.4
*END

*D_NET *474 0.00157283

*CONN
*I *1023:B1 I *C 24.505 54.665 *L 0.00283 *D AOI22X1
*I *1120:Y O *C 13.775 54.375 *L 0 *D MXI2XL

*CAP
1 *474:1 2.2747e-05
2 *474:2 2.2747e-05
3 *474:3 0.00076367
4 *474:4 0.00076367

*RES
1 *474:5 *1120:Y 1.4
2 *474:4 *474:5 1.4
3 *474:3 *474:4 4.59847
4 *474:2 *474:3 1.4
5 *474:1 *474:2 0.124284
6 *1023:B1 *474:1 1.4
*END

*D_NET *475 0.00107523

*CONN
*I *1022:A1 I *C 27.405 70.615 *L 0.00277 *D OAI22X1
*I *1119:Y O *C 27.695 64.815 *L 0 *D MXI2XL

*CAP
1 *475:2 2.43381e-05
2 *475:3 2.43381e-05
3 *475:4 0.000513279
4 *475:5 0.000513279

*RES
1 *475:5 *1119:Y 1.4
2 *475:4 *475:5 2.48565
3 *475:3 *475:4 1.4
4 *475:2 *475:3 0.124283
5 *475:1 *475:2 1.4
6 *1022:A1 *475:1 1.4
*END

*D_NET *476 0.000459299

*CONN
*I *1022:B1 I *C 27.985 70.615 *L 0.00282 *D OAI22X1
*I *1118:Y O *C 28.275 68.295 *L 0 *D AOI21X1

*CAP
1 *476:1 0.000205311
2 *476:2 0.000205311
3 *476:3 2.43381e-05
4 *476:4 2.43381e-05

*RES
1 *476:5 *1118:Y 1.4
2 *476:4 *476:5 1.4
3 *476:3 *476:4 0.124283
4 *476:2 *476:3 1.4
5 *476:1 *476:2 0.994261
6 *1022:B1 *476:1 1.4
*END

*D_NET *477 0.00253673

*CONN
*I *1021:A1 I *C 28.855 49.155 *L 0.0028 *D AOI22X1
*I *1117:Y O *C 25.665 38.715 *L 0 *D MXI2XL

*CAP
1 *477:2 2.52156e-05
2 *477:3 2.52156e-05
3 *477:4 0.000927751
4 *477:5 0.000927751
5 *477:6 0.000295312
6 *477:7 0.000295312
7 *477:8 2.00855e-05
8 *477:9 2.00855e-05

*RES
1 *477:9 *1117:Y 1.4
2 *477:8 *477:9 0.124283
3 *477:7 *477:8 1.4
4 *477:6 *477:7 1.4914
5 *477:5 *477:6 1.4
6 *477:4 *477:5 4.59868
7 *477:3 *477:4 1.4
8 *477:2 *477:3 0.124283
9 *477:1 *477:2 1.4
10 *1021:A1 *477:1 1.4
*END

*D_NET *478 0.00215668

*CONN
*I *1021:B1 I *C 29.435 49.445 *L 0.00283 *D AOI22X1
*I *1116:Y O *C 29.725 37.265 *L 0 *D MXI2XL

*CAP
1 *478:1 0.00105312
2 *478:2 0.00105312
3 *478:3 2.52156e-05
4 *478:4 2.52156e-05

*RES
1 *478:5 *1116:Y 1.4
2 *478:4 *478:5 1.4
3 *478:3 *478:4 0.124283
4 *478:2 *478:3 1.4
5 *478:1 *478:2 5.22012
6 *1021:B1 *478:1 1.4
*END

*D_NET *479 0.000819334

*CONN
*I *991:B I *C 74.965 110.345 *L 0.00158 *D NAND4XL
*I *1115:Y O *C 78.735 110.345 *L 0 *D AOI22X1

*CAP
1 *479:1 4.09545e-05
2 *479:2 4.09545e-05
3 *479:3 0.00032778
4 *479:4 0.00032778
5 *479:5 4.09329e-05
6 *479:6 4.09329e-05

*RES
1 *479:6 *1115:Y 1.4
2 *479:5 *479:6 0.248578
3 *479:4 *479:5 1.4
4 *479:3 *479:4 1.61568
5 *479:2 *479:3 1.4
6 *479:1 *479:2 0.248567
7 *991:B *479:1 1.4
*END

*D_NET *480 0.000746618

*CONN
*I *1037:A I *C 101.065 70.615 *L 0.00157 *D NAND2XL
*I *1114:Y O *C 103.385 68.585 *L 0 *D AOI22X1

*CAP
1 *480:1 0.000140755
2 *480:2 0.000140755
3 *480:3 0.000209095
4 *480:4 0.000209095
5 *480:5 2.34591e-05
6 *480:6 2.34591e-05

*RES
1 *480:6 *1114:Y 1.4
2 *480:5 *480:6 0.124288
3 *480:4 *480:5 1.4
4 *480:3 *480:4 0.99431
5 *480:2 *480:3 1.4
6 *480:1 *480:2 0.745728
7 *1037:A *480:1 1.4
*END

*D_NET *481 0.00160865

*CONN
*I *1018:A I *C 66.555 104.835 *L 0.00264 *D NAND3X1
*I *1113:Y O *C 58.725 106.575 *L 0 *D AOI22X1

*CAP
1 *481:2 0.00068146
2 *481:3 0.00068146
3 *481:4 0.000122864
4 *481:5 0.000122864

*RES
1 *481:5 *1113:Y 1.4
2 *481:4 *481:5 0.7457
3 *481:3 *481:4 1.4
4 *481:2 *481:3 3.35564
5 *481:1 *481:2 1.4
6 *1018:A *481:1 1.4
*END

*D_NET *482 0.00154153

*CONN
*I *1037:B I *C 100.485 70.615 *L 0.00167 *D NAND2XL
*I *1112:Y O *C 107.735 68.585 *L 0 *D AOI22X1

*CAP
1 *482:1 0.000164214
2 *482:2 0.000164214
3 *482:3 0.00060655
4 *482:4 0.00060655

*RES
1 *482:5 *1112:Y 1.4
2 *482:4 *482:5 1.4
3 *482:3 *482:4 3.10722
4 *482:2 *482:3 1.4
5 *482:1 *482:2 0.870017
6 *1037:B *482:1 1.4
*END

*D_NET *483 0.00153624

*CONN
*I *1018:B I *C 66.845 105.125 *L 0.00285 *D NAND3X1
*I *1111:Y O *C 62.495 101.355 *L 0 *D AOI22X1

*CAP
1 *483:1 4.09545e-05
2 *483:2 4.09545e-05
3 *483:3 0.00032811
4 *483:4 0.00032811
5 *483:5 0.000346548
6 *483:6 0.000346548
7 *483:7 5.25096e-05
8 *483:8 5.25096e-05

*RES
1 *483:9 *1111:Y 1.4
2 *483:8 *483:9 1.4
3 *483:7 *483:8 0.248577
4 *483:6 *483:7 1.4
5 *483:5 *483:6 1.86431
6 *483:4 *483:5 1.4
7 *483:3 *483:4 1.61568
8 *483:2 *483:3 1.4
9 *483:1 *483:2 0.248567
10 *1018:B *483:1 1.4
*END

*D_NET *484 0.00120172

*CONN
*I *1015:A I *C 119.045 73.805 *L 0.00152 *D NAND4XL
*I *1110:Y O *C 118.465 80.475 *L 0 *D AOI22X1

*CAP
1 *484:1 0.000533989
2 *484:2 0.000533989
3 *484:3 4.39181e-05
4 *484:4 4.39181e-05
5 *484:5 2.29546e-05
6 *484:6 2.29546e-05

*RES
1 *484:6 *1110:Y 1.4
2 *484:5 *484:6 0.124283
3 *484:4 *484:5 1.4
4 *484:3 *484:4 0.248577
5 *484:2 *484:3 1.4
6 *484:1 *484:2 2.73431
7 *1015:A *484:1 1.4
*END

*D_NET *485 0.000668847

*CONN
*I *1036:B I *C 90.335 70.615 *L 0.00167 *D NAND2XL
*I *1109:Y O *C 93.525 70.035 *L 0 *D AOI22X1

*CAP
1 *485:1 2.34591e-05
2 *485:2 2.34591e-05
3 *485:3 0.000287505
4 *485:4 0.000287505
5 *485:5 2.34591e-05
6 *485:6 2.34591e-05

*RES
1 *485:6 *1109:Y 1.4
2 *485:5 *485:6 0.124288
3 *485:4 *485:5 1.4
4 *485:3 *485:4 1.36718
5 *485:2 *485:3 1.4
6 *485:1 *485:2 0.124288
7 *1036:B *485:1 1.4
*END

*D_NET *486 0.00227461

*CONN
*I *1011:C0 I *C 86.565 85.695 *L 0.00287 *D OAI211X1
*I *1108:Y O *C 94.395 90.915 *L 0 *D AOI22X1

*CAP
1 *486:2 0.00066809
2 *486:3 0.00066809
3 *486:4 0.000443521
4 *486:5 0.000443521
5 *486:6 2.56958e-05
6 *486:7 2.56958e-05

*RES
1 *486:8 *1108:Y 1.4
2 *486:7 *486:8 1.4
3 *486:6 *486:7 0.124283
4 *486:5 *486:6 1.4
5 *486:4 *486:5 2.2372
6 *486:3 *486:4 1.4
7 *486:2 *486:3 3.23135
8 *486:1 *486:2 1.4
9 *1011:C0 *486:1 1.4
*END

*D_NET *487 0.00192214

*CONN
*I *1036:A I *C 89.755 70.615 *L 0.00157 *D NAND2XL
*I *1107:Y O *C 82.215 74.095 *L 0 *D AOI22XL

*CAP
1 *487:2 0.000679558
2 *487:3 0.000679558
3 *487:4 0.00028151
4 *487:5 0.00028151

*RES
1 *487:5 *1107:Y 1.4
2 *487:4 *487:5 1.49146
3 *487:3 *487:4 1.4
4 *487:2 *487:3 3.23151
5 *487:1 *487:2 1.4
6 *1036:A *487:1 1.4
*END

*D_NET *488 0.000977952

*CONN
*I *983:A I *C 98.455 106.575 *L 0.00152 *D NAND4XL
*I *1106:Y O *C 102.225 106.575 *L 0 *D AOI22X1

*CAP
1 *488:1 8.18659e-05
2 *488:2 8.18659e-05
3 *488:3 0.000325244
4 *488:4 0.000325244
5 *488:5 8.18659e-05
6 *488:6 8.18659e-05

*RES
1 *488:6 *1106:Y 1.4
2 *488:5 *488:6 0.497155
3 *488:4 *488:5 1.4
4 *488:3 *488:4 1.61568
5 *488:2 *488:3 1.4
6 *488:1 *488:2 0.497155
7 *983:A *488:1 1.4
*END

*D_NET *489 0.00117448

*CONN
*I *993:A I *C 61.045 34.075 *L 0.00175 *D AND4X1
*I *1105:Y O *C 65.395 33.205 *L 0 *D AOI22XL

*CAP
1 *489:1 6.48267e-05
2 *489:2 6.48267e-05
3 *489:3 0.000392758
4 *489:4 0.000392758
5 *489:5 0.000129653
6 *489:6 0.000129653

*RES
1 *489:6 *1105:Y 1.4
2 *489:5 *489:6 0.745701
3 *489:4 *489:5 1.4
4 *489:3 *489:4 1.86433
5 *489:2 *489:3 1.4
6 *489:1 *489:2 0.37285
7 *993:A *489:1 1.4
*END

*D_NET *490 0.00243818

*CONN
*I *998:A I *C 27.405 107.155 *L 0.00157 *D NAND2XL
*I *1104:Y O *C 39.295 111.795 *L 0 *D AOI22X1

*CAP
1 *490:1 0.000316515
2 *490:2 0.000316515
3 *490:3 0.000902574
4 *490:4 0.000902574

*RES
1 *490:5 *1104:Y 1.4
2 *490:4 *490:5 1.4
3 *490:3 *490:4 5.09584
4 *490:2 *490:3 1.4
5 *490:1 *490:2 1.98853
6 *998:A *490:1 1.4
*END

*D_NET *491 0.00292246

*CONN
*I *993:B I *C 60.465 34.075 *L 0.00178 *D AND4X1
*I *1103:Y O *C 60.175 53.215 *L 0 *D AOI22XL

*CAP
1 *491:1 0.00143498
2 *491:2 0.00143498
3 *491:3 2.62559e-05
4 *491:4 2.62559e-05

*RES
1 *491:5 *1103:Y 1.4
2 *491:4 *491:5 1.4
3 *491:3 *491:4 0.124283
4 *491:2 *491:3 1.4
5 *491:1 *491:2 8.20271
6 *993:B *491:1 1.4
*END

*D_NET *492 0.000801719

*CONN
*I *1034:B I *C 54.665 44.515 *L 0.00167 *D NAND2XL
*I *1102:Y O *C 50.895 43.645 *L 0 *D AOI22XL

*CAP
1 *492:1 6.48267e-05
2 *492:2 6.48267e-05
3 *492:3 0.000336033
4 *492:4 0.000336033

*RES
1 *492:5 *1102:Y 1.4
2 *492:4 *492:5 1.4
3 *492:3 *492:4 1.61573
4 *492:2 *492:3 1.4
5 *492:1 *492:2 0.37285
6 *1034:B *492:1 1.4
*END

*D_NET *493 0.00147577

*CONN
*I *1034:A I *C 54.085 44.515 *L 0.00157 *D NAND2XL
*I *1101:Y O *C 53.505 52.925 *L 0 *D AOI22X1

*CAP
1 *493:2 2.61838e-05
2 *493:3 2.61838e-05
3 *493:4 0.000608816
4 *493:5 0.000608816
5 *493:6 7.87677e-05
6 *493:7 7.87677e-05
7 *493:8 2.412e-05
8 *493:9 2.412e-05

*RES
1 *493:9 *1101:Y 1.4
2 *493:8 *493:9 0.124284
3 *493:7 *493:8 1.4
4 *493:6 *493:7 0.372849
5 *493:5 *493:6 1.4
6 *493:4 *493:5 3.47994
7 *493:3 *493:4 1.4
8 *493:2 *493:3 0.124289
9 *493:1 *493:2 1.4
10 *1034:A *493:1 1.4
*END

*D_NET *494 0.00129612

*CONN
*I *1015:D I *C 118.175 73.515 *L 0.00166 *D NAND4XL
*I *1100:Y O *C 110.635 73.805 *L 0 *D AOI22X1

*CAP
1 *494:1 2.48248e-05
2 *494:2 2.48248e-05
3 *494:3 0.000573587
4 *494:4 0.000573587
5 *494:5 4.96496e-05
6 *494:6 4.96496e-05

*RES
1 *494:6 *1100:Y 1.4
2 *494:5 *494:6 0.248577
3 *494:4 *494:5 1.4
4 *494:3 *494:4 3.23151
5 *494:2 *494:3 1.4
6 *494:1 *494:2 0.124289
7 *1015:D *494:1 1.4
*END

*D_NET *495 0.0023067

*CONN
*I *1013:C I *C 107.155 39.005 *L 0.00164 *D NAND4XL
*I *1099:Y O *C 106.575 54.375 *L 0 *D AOI22X1

*CAP
1 *495:1 0.00110923
2 *495:2 0.00110923
3 *495:3 4.41221e-05
4 *495:4 4.41221e-05

*RES
1 *495:5 *1099:Y 1.4
2 *495:4 *495:5 1.4
3 *495:3 *495:4 0.248578
4 *495:2 *495:3 1.4
5 *495:1 *495:2 6.58705
6 *1013:C *495:1 1.4
*END

*D_NET *496 0.000410834

*CONN
*I *1013:B I *C 107.445 38.715 *L 0.00158 *D NAND4XL
*I *1098:Y O *C 106.575 37.265 *L 0 *D AOI22X1

*CAP
1 *496:2 8.31871e-05
2 *496:3 8.31871e-05
3 *496:4 0.000101433
4 *496:5 0.000101433
5 *496:6 2.07968e-05
6 *496:7 2.07968e-05

*RES
1 *496:8 *1098:Y 1.4
2 *496:7 *496:8 1.4
3 *496:6 *496:7 0.124283
4 *496:5 *496:6 1.4
5 *496:4 *496:5 0.621416
6 *496:3 *496:4 1.4
7 *496:2 *496:3 0.497132
8 *496:1 *496:2 1.4
9 *1013:B *496:1 1.4
*END

*D_NET *497 0.00126448

*CONN
*I *1010:B I *C 89.465 109.765 *L 0.00167 *D NAND2XL
*I *1097:Y O *C 93.235 106.575 *L 0 *D AOI22X1

*CAP
1 *497:2 2.50188e-05
2 *497:3 2.50188e-05
3 *497:4 0.000266064
4 *497:5 0.000266064
5 *497:6 0.000300225
6 *497:7 0.000300225
7 *497:8 4.09329e-05
8 *497:9 4.09329e-05

*RES
1 *497:9 *1097:Y 1.4
2 *497:8 *497:9 0.248578
3 *497:7 *497:8 1.4
4 *497:6 *497:7 1.49139
5 *497:5 *497:6 1.4
6 *497:4 *497:5 1.61575
7 *497:3 *497:4 1.4
8 *497:2 *497:3 0.124283
9 *497:1 *497:2 1.4
10 *1010:B *497:1 1.4
*END

*D_NET *498 0.00293478

*CONN
*I *1013:A I *C 107.735 38.715 *L 0.00152 *D NAND4XL
*I *1096:Y O *C 123.105 43.935 *L 0 *D AOI22X1

*CAP
1 *498:2 0.00110223
2 *498:3 0.00110223
3 *498:4 0.000365159
4 *498:5 0.000365159

*RES
1 *498:5 *1096:Y 1.4
2 *498:4 *498:5 2.2371
3 *498:3 *498:4 1.4
4 *498:2 *498:3 6.587
5 *498:1 *498:2 1.4
6 *1013:A *498:1 1.4
*END

*D_NET *499 0.00185538

*CONN
*I *1013:D I *C 106.865 39.005 *L 0.00166 *D NAND4XL
*I *1095:Y O *C 114.695 43.645 *L 0 *D AOI22XL

*CAP
1 *499:2 2.07968e-05
2 *499:3 2.07968e-05
3 *499:4 0.000324585
4 *499:5 0.000324585
5 *499:6 0.00058231
6 *499:7 0.00058231

*RES
1 *499:8 *1095:Y 1.4
2 *499:7 *499:8 1.4
3 *499:6 *499:7 3.47993
4 *499:5 *499:6 1.4
5 *499:4 *499:5 1.98853
6 *499:3 *499:4 1.4
7 *499:2 *499:3 0.124283
8 *499:1 *499:2 1.4
9 *1013:D *499:1 1.4
*END

*D_NET *500 0.000500978

*CONN
*I *1033:A I *C 54.085 107.155 *L 0.00157 *D NAND2XL
*I *1094:Y O *C 54.375 110.345 *L 0 *D AOI22X1

*CAP
1 *500:1 0.00022525
2 *500:2 0.00022525
3 *500:3 2.52392e-05
4 *500:4 2.52392e-05

*RES
1 *500:5 *1094:Y 1.4
2 *500:4 *500:5 1.4
3 *500:3 *500:4 0.124283
4 *500:2 *500:3 1.4
5 *500:1 *500:2 1.36712
6 *1033:A *500:1 1.4
*END

*D_NET *501 0.000989337

*CONN
*I *1017:B I *C 91.495 42.485 *L 0.00158 *D NAND4XL
*I *1093:Y O *C 96.135 42.485 *L 0 *D AOI22X1

*CAP
1 *501:1 4.32789e-05
2 *501:2 4.32789e-05
3 *501:3 0.00040811
4 *501:4 0.00040811
5 *501:5 4.32789e-05
6 *501:6 4.32789e-05

*RES
1 *501:6 *1093:Y 1.4
2 *501:5 *501:6 0.248578
3 *501:4 *501:5 1.4
4 *501:3 *501:4 1.98862
5 *501:2 *501:3 1.4
6 *501:1 *501:2 0.248578
7 *1017:B *501:1 1.4
*END

*D_NET *502 0.00169533

*CONN
*I *1033:B I *C 54.665 107.155 *L 0.00167 *D NAND2XL
*I *1092:Y O *C 56.405 117.015 *L 0 *D AOI22X1

*CAP
1 *502:1 0.00067575
2 *502:2 0.00067575
3 *502:3 0.000151435
4 *502:4 0.000151435
5 *502:5 2.04773e-05
6 *502:6 2.04773e-05

*RES
1 *502:6 *1092:Y 1.4
2 *502:5 *502:6 0.124283
3 *502:4 *502:5 1.4
4 *502:3 *502:4 0.745697
5 *502:2 *502:3 1.4
6 *502:1 *502:2 4.10135
7 *1033:B *502:1 1.4
*END

*D_NET *503 0.00176836

*CONN
*I *1017:A I *C 91.205 42.485 *L 0.00152 *D NAND4XL
*I *1091:Y O *C 90.335 53.215 *L 0 *D AOI22XL

*CAP
1 *503:2 5.10138e-05
2 *503:3 5.10138e-05
3 *503:4 0.000807029
4 *503:5 0.000807029
5 *503:6 2.61369e-05
6 *503:7 2.61369e-05

*RES
1 *503:8 *1091:Y 1.4
2 *503:7 *503:8 1.4
3 *503:6 *503:7 0.124289
4 *503:5 *503:6 1.4
5 *503:4 *503:5 4.59868
6 *503:3 *503:4 1.4
7 *503:2 *503:3 0.248578
8 *503:1 *503:2 1.4
9 *1017:A *503:1 1.4
*END

*D_NET *504 0.00150242

*CONN
*I *1017:C I *C 91.785 42.195 *L 0.00164 *D NAND4XL
*I *1090:Y O *C 92.945 33.495 *L 0 *D AOI22X1

*CAP
1 *504:1 2.16395e-05
2 *504:2 2.16395e-05
3 *504:3 0.000102028
4 *504:4 0.000102028
5 *504:5 0.000627545
6 *504:6 0.000627545

*RES
1 *504:6 *1090:Y 1.4
2 *504:5 *504:6 3.60437
3 *504:4 *504:5 1.4
4 *504:3 *504:4 0.497155
5 *504:2 *504:3 1.4
6 *504:1 *504:2 0.124289
7 *1017:C *504:1 1.4
*END

*D_NET *505 0.000727029

*CONN
*I *1032:B I *C 54.955 101.935 *L 0.00167 *D NAND2XL
*I *1089:Y O *C 58.435 101.355 *L 0 *D AOI22X1

*CAP
1 *505:1 2.42286e-05
2 *505:2 2.42286e-05
3 *505:3 0.000315057
4 *505:4 0.000315057
5 *505:5 2.42286e-05
6 *505:6 2.42286e-05

*RES
1 *505:6 *1089:Y 1.4
2 *505:5 *505:6 0.124289
3 *505:4 *505:5 1.4
4 *505:3 *505:4 1.49146
5 *505:2 *505:3 1.4
6 *505:1 *505:2 0.124289
7 *1032:B *505:1 1.4
*END

*D_NET *506 0.00155657

*CONN
*I *1017:D I *C 92.075 42.195 *L 0.00166 *D NAND4XL
*I *1088:Y O *C 95.265 47.705 *L 0 *D AOI22X1

*CAP
1 *506:1 4.32789e-05
2 *506:2 4.32789e-05
3 *506:3 0.000255069
4 *506:4 0.000255069
5 *506:5 0.000454429
6 *506:6 0.000454429
7 *506:7 2.55069e-05
8 *506:8 2.55069e-05

*RES
1 *506:9 *1088:Y 1.4
2 *506:8 *506:9 1.4
3 *506:7 *506:8 0.124289
4 *506:6 *506:7 1.4
5 *506:5 *506:6 2.61006
6 *506:4 *506:5 1.4
7 *506:3 *506:4 1.24289
8 *506:2 *506:3 1.4
9 *506:1 *506:2 0.248578
10 *1017:D *506:1 1.4
*END

*D_NET *507 0.00281457

*CONN
*I *1032:A I *C 54.375 101.935 *L 0.00157 *D NAND2XL
*I *1087:Y O *C 54.665 85.405 *L 0 *D AOI22XL

*CAP
1 *507:1 0.00138103
2 *507:2 0.00138103
3 *507:3 2.62548e-05
4 *507:4 2.62548e-05

*RES
1 *507:5 *1087:Y 1.4
2 *507:4 *507:5 1.4
3 *507:3 *507:4 0.124289
4 *507:2 *507:3 1.4
5 *507:1 *507:2 7.08446
6 *1032:A *507:1 1.4
*END

*D_NET *508 0.00134171

*CONN
*I *1014:A I *C 79.315 47.705 *L 0.00152 *D NAND4XL
*I *1086:Y O *C 81.345 52.925 *L 0 *D AOI22X1

*CAP
1 *508:1 0.000440978
2 *508:2 0.000440978
3 *508:3 0.000182958
4 *508:4 0.000182958
5 *508:5 4.69183e-05
6 *508:6 4.69183e-05

*RES
1 *508:6 *1086:Y 1.4
2 *508:5 *508:6 0.248576
3 *508:4 *508:5 1.4
4 *508:3 *508:4 0.870021
5 *508:2 *508:3 1.4
6 *508:1 *508:2 2.48577
7 *1014:A *508:1 1.4
*END

*D_NET *509 0.00132821

*CONN
*I *1044:B0 I *C 85.985 109.765 *L 0.00277 *D AOI21X1
*I *1085:Y O *C 81.925 107.445 *L 0 *D NOR2XL

*CAP
1 *509:2 7.50563e-05
2 *509:3 7.50563e-05
3 *509:4 0.000163732
4 *509:5 0.000163732
5 *509:6 0.000425319
6 *509:7 0.000425319

*RES
1 *509:8 *1085:Y 1.4
2 *509:7 *509:8 1.4
3 *509:6 *509:7 2.11281
4 *509:5 *509:6 1.4
5 *509:4 *509:5 0.99431
6 *509:3 *509:4 1.4
7 *509:2 *509:3 0.372849
8 *509:1 *509:2 1.4
9 *1044:B0 *509:1 1.4
*END

*D_NET *510 0.00134476

*CONN
*I *1014:B I *C 79.025 47.705 *L 0.00158 *D NAND4XL
*I *1084:Y O *C 74.675 43.935 *L 0 *D AOI22X1

*CAP
1 *510:1 0.000281313
2 *510:2 0.000281313
3 *510:3 0.000391065
4 *510:4 0.000391065

*RES
1 *510:5 *1084:Y 1.4
2 *510:4 *510:5 1.4
3 *510:3 *510:4 1.86433
4 *510:2 *510:3 1.4
5 *510:1 *510:2 1.61575
6 *1014:B *510:1 1.4
*END

*D_NET *511 0.00218009

*CONN
*I *1014:C I *C 78.735 47.415 *L 0.00164 *D NAND4XL
*I *1083:Y O *C 78.155 33.495 *L 0 *D AOI22X1

*CAP
1 *511:1 0.00103869
2 *511:2 0.00103869
3 *511:3 5.13523e-05
4 *511:4 5.13523e-05

*RES
1 *511:5 *1083:Y 1.4
2 *511:4 *511:5 1.4
3 *511:3 *511:4 0.248578
4 *511:2 *511:3 1.4
5 *511:1 *511:2 5.96586
6 *1014:C *511:1 1.4
*END

*D_NET *512 0.00245271

*CONN
*I *1020:C I *C 70.325 44.225 *L 0.00164 *D NAND4XL
*I *1082:Y O *C 74.095 33.495 *L 0 *D AOI22X1

*CAP
1 *512:1 4.32178e-05
2 *512:2 4.32178e-05
3 *512:3 0.00034039
4 *512:4 0.00034039
5 *512:5 0.000842747
6 *512:6 0.000842747

*RES
1 *512:6 *1082:Y 1.4
2 *512:5 *512:6 4.84705
3 *512:4 *512:5 1.4
4 *512:3 *512:4 1.61575
5 *512:2 *512:3 1.4
6 *512:1 *512:2 0.248567
7 *1020:C *512:1 1.4
*END

*D_NET *513 0.000871951

*CONN
*I *1020:D I *C 70.615 44.225 *L 0.00166 *D NAND4XL
*I *1081:Y O *C 66.265 43.645 *L 0 *D AOI22XL

*CAP
1 *513:1 2.16089e-05
2 *513:2 2.16089e-05
3 *513:3 0.000392758
4 *513:4 0.000392758
5 *513:5 2.16089e-05
6 *513:6 2.16089e-05

*RES
1 *513:6 *1081:Y 1.4
2 *513:5 *513:6 0.124283
3 *513:4 *513:5 1.4
4 *513:3 *513:4 1.86433
5 *513:2 *513:3 1.4
6 *513:1 *513:2 0.124283
7 *1020:D *513:1 1.4
*END

*D_NET *514 0.00203054

*CONN
*I *1020:B I *C 70.035 43.935 *L 0.00158 *D NAND4XL
*I *1080:Y O *C 67.135 53.215 *L 0 *D AOI22XL

*CAP
1 *514:2 2.61838e-05
2 *514:3 2.61838e-05
3 *514:4 0.000700273
4 *514:5 0.000700273
5 *514:6 0.000288815
6 *514:7 0.000288815

*RES
1 *514:8 *1080:Y 1.4
2 *514:7 *514:8 1.4
3 *514:6 *514:7 1.36711
4 *514:5 *514:6 1.4
5 *514:4 *514:5 3.97707
6 *514:3 *514:4 1.4
7 *514:2 *514:3 0.124289
8 *514:1 *514:2 1.4
9 *1020:B *514:1 1.4
*END

*D_NET *515 0.00140128

*CONN
*I *1008:B I *C 110.055 94.105 *L 0.00167 *D NAND2XL
*I *1079:Y O *C 113.245 99.905 *L 0 *D AOI22X1

*CAP
1 *515:1 0.000413183
2 *515:2 0.000413183
3 *515:3 0.000241549
4 *515:4 0.000241549
5 *515:5 4.59092e-05
6 *515:6 4.59092e-05

*RES
1 *515:6 *1079:Y 1.4
2 *515:5 *515:6 0.248565
3 *515:4 *515:5 1.4
4 *515:3 *515:4 1.36718
5 *515:2 *515:3 1.4
6 *515:1 *515:2 2.23709
7 *1008:B *515:1 1.4
*END

*D_NET *516 0.000580269

*CONN
*I *1007:A I *C 112.665 47.125 *L 0.00157 *D NAND2XL
*I *1078:Y O *C 109.185 47.705 *L 0 *D AOI22X1

*CAP
1 *516:1 2.02866e-05
2 *516:2 2.02866e-05
3 *516:3 0.000249561
4 *516:4 0.000249561
5 *516:5 2.02866e-05
6 *516:6 2.02866e-05

*RES
1 *516:6 *1078:Y 1.4
2 *516:5 *516:6 0.124283
3 *516:4 *516:5 1.4
4 *516:3 *516:4 1.4914
5 *516:2 *516:3 1.4
6 *516:1 *516:2 0.124283
7 *1007:A *516:1 1.4
*END

*D_NET *517 0.000741542

*CONN
*I *1024:B I *C 119.625 47.125 *L 0.00167 *D NAND2XL
*I *1077:Y O *C 122.815 49.155 *L 0 *D AOI22X1

*CAP
1 *517:2 0.000228765
2 *517:3 0.000228765
3 *517:4 0.000142006
4 *517:5 0.000142006

*RES
1 *517:5 *1077:Y 1.4
2 *517:4 *517:5 0.869982
3 *517:3 *517:4 1.4
4 *517:2 *517:3 1.36711
5 *517:1 *517:2 1.4
6 *1024:B *517:1 1.4
*END

*D_NET *518 0.000487899

*CONN
*I *1024:A I *C 119.045 47.125 *L 0.00157 *D NAND2XL
*I *1076:Y O *C 119.335 43.935 *L 0 *D AOI22X1

*CAP
1 *518:2 2.07968e-05
2 *518:3 2.07968e-05
3 *518:4 0.000223152
4 *518:5 0.000223152

*RES
1 *518:5 *1076:Y 1.4
2 *518:4 *518:5 1.36711
3 *518:3 *518:4 1.4
4 *518:2 *518:3 0.124283
5 *518:1 *518:2 1.4
6 *1024:A *518:1 1.4
*END

*D_NET *519 0.00567262

*CONN
*I *1030:B I *C 113.245 101.935 *L 0.00167 *D NAND2XL
*I *1075:Y O *C 91.205 115.565 *L 0 *D AOI22X1

*CAP
1 *519:2 0.00183891
2 *519:3 0.00183891
3 *519:4 0.000997399
4 *519:5 0.000997399

*RES
1 *519:5 *1075:Y 1.4
2 *519:4 *519:5 5.84157
3 *519:3 *519:4 1.4
4 *519:2 *519:3 9.44568
5 *519:1 *519:2 1.4
6 *1030:B *519:1 1.4
*END

*D_NET *520 0.00149469

*CONN
*I *988:B I *C 87.725 42.485 *L 0.00158 *D NAND4XL
*I *1074:Y O *C 88.595 33.495 *L 0 *D AOI22X1

*CAP
1 *520:2 2.55069e-05
2 *520:3 2.55069e-05
3 *520:4 0.000670824
4 *520:5 0.000670824
5 *520:6 5.10138e-05
6 *520:7 5.10138e-05

*RES
1 *520:8 *1074:Y 1.4
2 *520:7 *520:8 1.4
3 *520:6 *520:7 0.248578
4 *520:5 *520:6 1.4
5 *520:4 *520:5 3.85295
6 *520:3 *520:4 1.4
7 *520:2 *520:3 0.124289
8 *520:1 *520:2 1.4
9 *988:B *520:1 1.4
*END

*D_NET *521 0.00404826

*CONN
*I *1002:C0 I *C 65.685 80.475 *L 0.00287 *D OAI211X1
*I *1073:Y O *C 63.365 59.885 *L 0 *D AOI21X1

*CAP
1 *521:2 2.62548e-05
2 *521:3 2.62548e-05
3 *521:4 0.00173745
4 *521:5 0.00173745
5 *521:6 0.000236303
6 *521:7 0.000236303
7 *521:8 2.412e-05
8 *521:9 2.412e-05

*RES
1 *521:9 *1073:Y 1.4
2 *521:8 *521:9 0.124284
3 *521:7 *521:8 1.4
4 *521:6 *521:7 1.11855
5 *521:5 *521:6 1.4
6 *521:4 *521:5 8.94845
7 *521:3 *521:4 1.4
8 *521:2 *521:3 0.124289
9 *521:1 *521:2 1.4
10 *1002:C0 *521:1 1.4
*END

*D_NET *522 0.00187291

*CONN
*I *988:A I *C 87.435 42.485 *L 0.00152 *D NAND4XL
*I *1072:Y O *C 85.985 53.215 *L 0 *D AOI22XL

*CAP
1 *522:2 5.10138e-05
2 *522:3 5.10138e-05
3 *522:4 0.000807029
4 *522:5 0.000807029
5 *522:6 7.84106e-05
6 *522:7 7.84106e-05

*RES
1 *522:8 *1072:Y 1.4
2 *522:7 *522:8 1.4
3 *522:6 *522:7 0.372866
4 *522:5 *522:6 1.4
5 *522:4 *522:5 4.59868
6 *522:3 *522:4 1.4
7 *522:2 *522:3 0.248578
8 *522:1 *522:2 1.4
9 *988:A *522:1 1.4
*END

*D_NET *523 0.0013754

*CONN
*I *1030:A I *C 113.825 101.935 *L 0.00157 *D NAND2XL
*I *1071:Y O *C 120.785 99.905 *L 0 *D AOI22X1

*CAP
1 *523:2 0.000527017
2 *523:3 0.000527017
3 *523:4 0.000160682
4 *523:5 0.000160682

*RES
1 *523:5 *1071:Y 1.4
2 *523:4 *523:5 0.869979
3 *523:3 *523:4 1.4
4 *523:2 *523:3 2.98293
5 *523:1 *523:2 1.4
6 *1030:A *523:1 1.4
*END

*D_NET *524 0.00120735

*CONN
*I *1028:A I *C 73.225 81.055 *L 0.00157 *D NAND2XL
*I *1070:Y O *C 76.415 79.025 *L 0 *D AOI22X1

*CAP
1 *524:2 2.62548e-05
2 *524:3 2.62548e-05
3 *524:4 0.000242232
4 *524:5 0.000242232
5 *524:6 0.000262559
6 *524:7 0.000262559
7 *524:8 7.26314e-05
8 *524:9 7.26314e-05

*RES
1 *524:9 *1070:Y 1.4
2 *524:8 *524:9 0.372864
3 *524:7 *524:8 1.4
4 *524:6 *524:7 1.24283
5 *524:5 *524:6 1.4
6 *524:4 *524:5 1.24288
7 *524:3 *524:4 1.4
8 *524:2 *524:3 0.124289
9 *524:1 *524:2 1.4
10 *1028:A *524:1 1.4
*END

*D_NET *525 0.00140543

*CONN
*I *1028:B I *C 72.645 81.055 *L 0.00167 *D NAND2XL
*I *1069:Y O *C 69.165 85.695 *L 0 *D AOI22X1

*CAP
1 *525:1 2.42286e-05
2 *525:2 2.42286e-05
3 *525:3 0.000315057
4 *525:4 0.000315057
5 *525:5 0.000363429
6 *525:6 0.000363429

*RES
1 *525:6 *1069:Y 1.4
2 *525:5 *525:6 1.86433
3 *525:4 *525:5 1.4
4 *525:3 *525:4 1.49146
5 *525:2 *525:3 1.4
6 *525:1 *525:2 0.124289
7 *1028:B *525:1 1.4
*END

*D_NET *526 0.00118044

*CONN
*I *1015:C I *C 118.465 73.515 *L 0.00164 *D NAND4XL
*I *1068:Y O *C 115.275 70.035 *L 0 *D AOI22X1

*CAP
1 *526:1 0.000322722
2 *526:2 0.000322722
3 *526:3 0.000242672
4 *526:4 0.000242672
5 *526:5 2.48248e-05
6 *526:6 2.48248e-05

*RES
1 *526:6 *1068:Y 1.4
2 *526:5 *526:6 0.124289
3 *526:4 *526:5 1.4
4 *526:3 *526:4 1.36718
5 *526:2 *526:3 1.4
6 *526:1 *526:2 1.61575
7 *1015:C *526:1 1.4
*END

*D_NET *527 0.00100204

*CONN
*I *984:A I *C 108.315 96.135 *L 0.00152 *D NAND4XL
*I *1067:Y O *C 107.155 90.915 *L 0 *D AOI22X1

*CAP
1 *527:2 2.1959e-05
2 *527:3 2.1959e-05
3 *527:4 0.000413183
4 *527:5 0.000413183
5 *527:6 6.58771e-05
6 *527:7 6.58771e-05

*RES
1 *527:8 *1067:Y 1.4
2 *527:7 *527:8 1.4
3 *527:6 *527:7 0.372866
4 *527:5 *527:6 1.4
5 *527:4 *527:5 2.23709
6 *527:3 *527:4 1.4
7 *527:2 *527:3 0.124289
8 *527:1 *527:2 1.4
9 *984:A *527:1 1.4
*END

*D_NET *528 0.000875613

*CONN
*I *1040:B0 I *C 63.075 73.515 *L 0.00166 *D AOI21XL
*I *1066:Y O *C 59.305 72.935 *L 0 *D OAI22XL

*CAP
1 *528:1 2.412e-05
2 *528:2 2.412e-05
3 *528:3 0.000341327
4 *528:4 0.000341327
5 *528:5 7.23599e-05
6 *528:6 7.23599e-05

*RES
1 *528:6 *1066:Y 1.4
2 *528:5 *528:6 0.372851
3 *528:4 *528:5 1.4
4 *528:3 *528:4 1.61568
5 *528:2 *528:3 1.4
6 *528:1 *528:2 0.124284
7 *1040:B0 *528:1 1.4
*END

*D_NET *529 0.00156476

*CONN
*I *984:B I *C 108.605 96.135 *L 0.00158 *D NAND4XL
*I *1065:Y O *C 109.765 105.125 *L 0 *D AOI22X1

*CAP
1 *529:2 4.39181e-05
2 *529:3 4.39181e-05
3 *529:4 0.000700113
4 *529:5 0.000700113
5 *529:6 3.83504e-05
6 *529:7 3.83504e-05

*RES
1 *529:8 *1065:Y 1.4
2 *529:7 *529:8 1.4
3 *529:6 *529:7 0.248566
4 *529:5 *529:6 1.4
5 *529:4 *529:5 3.85278
6 *529:3 *529:4 1.4
7 *529:2 *529:3 0.248577
8 *529:1 *529:2 1.4
9 *984:B *529:1 1.4
*END

*D_NET *530 0.00148769

*CONN
*I *991:C I *C 74.675 110.055 *L 0.00164 *D NAND4XL
*I *1064:Y O *C 71.775 117.015 *L 0 *D AOI22X1

*CAP
1 *530:1 0.000470977
2 *530:2 0.000470977
3 *530:3 0.000252392
4 *530:4 0.000252392
5 *530:5 2.04773e-05
6 *530:6 2.04773e-05

*RES
1 *530:6 *1064:Y 1.4
2 *530:5 *530:6 0.124283
3 *530:4 *530:5 1.4
4 *530:3 *530:4 1.24283
5 *530:2 *530:3 1.4
6 *530:1 *530:2 2.85852
7 *991:C *530:1 1.4
*END

*D_NET *531 0.000717009

*CONN
*I *1015:B I *C 118.755 73.805 *L 0.00158 *D NAND4XL
*I *1063:Y O *C 122.815 73.805 *L 0 *D AOI22X1

*CAP
1 *531:1 2.48248e-05
2 *531:2 2.48248e-05
3 *531:3 0.000308855
4 *531:4 0.000308855
5 *531:5 2.48248e-05
6 *531:6 2.48248e-05

*RES
1 *531:6 *1063:Y 1.4
2 *531:5 *531:6 0.124289
3 *531:4 *531:5 1.4
4 *531:3 *531:4 1.74004
5 *531:2 *531:3 1.4
6 *531:1 *531:2 0.124289
7 *1015:B *531:1 1.4
*END

*D_NET *532 0.000993381

*CONN
*I *991:D I *C 74.385 110.055 *L 0.00166 *D NAND4XL
*I *1062:Y O *C 70.325 110.345 *L 0 *D AOI22X1

*CAP
1 *532:1 6.14318e-05
2 *532:2 6.14318e-05
3 *532:3 0.000353349
4 *532:4 0.000353349
5 *532:5 8.19091e-05
6 *532:6 8.19091e-05

*RES
1 *532:6 *1062:Y 1.4
2 *532:5 *532:6 0.497134
3 *532:4 *532:5 1.4
4 *532:3 *532:4 1.73996
5 *532:2 *532:3 1.4
6 *532:1 *532:2 0.37285
7 *991:D *532:1 1.4
*END

*D_NET *533 0.000881475

*CONN
*I *1050:B0 I *C 34.945 75.835 *L 0.00277 *D AOI21X1
*I *1061:Y O *C 39.585 76.415 *L 0 *D OAI22X1

*CAP
1 *533:1 2.56639e-05
2 *533:2 2.56639e-05
3 *533:3 0.00038941
4 *533:4 0.00038941
5 *533:5 2.56639e-05
6 *533:6 2.56639e-05

*RES
1 *533:6 *1061:Y 1.4
2 *533:5 *533:6 0.124283
3 *533:4 *533:5 1.4
4 *533:3 *533:4 1.98852
5 *533:2 *533:3 1.4
6 *533:1 *533:2 0.124283
7 *1050:B0 *533:1 1.4
*END

*D_NET *534 0.00254522

*CONN
*I *1000:B1 I *C 27.985 86.275 *L 0.00282 *D OAI22X1
*I *1060:Y O *C 10.875 85.695 *L 0 *D AOI221X1

*CAP
1 *534:2 0.00123056
2 *534:3 0.00123056
3 *534:4 4.20444e-05
4 *534:5 4.20444e-05

*RES
1 *534:5 *1060:Y 1.4
2 *534:4 *534:5 0.248565
3 *534:3 *534:4 1.4
4 *534:2 *534:3 7.3327
5 *534:1 *534:2 1.4
6 *1000:B1 *534:1 1.4
*END

*D_NET *535 0.000894076

*CONN
*I *1027:B I *C 28.855 99.325 *L 0.00171 *D NOR2XL
*I *1059:Y O *C 30.885 96.135 *L 0 *D AOI221X1

*CAP
1 *535:1 0.00027411
2 *535:2 0.00027411
3 *535:3 0.000172928
4 *535:4 0.000172928

*RES
1 *535:5 *1059:Y 1.4
2 *535:4 *535:5 1.4
3 *535:3 *535:4 0.86998
4 *535:2 *535:3 1.4
5 *535:1 *535:2 1.36718
6 *1027:B *535:1 1.4
*END

*D_NET *536 0.000435816

*CONN
*I *1025:B I *C 38.135 104.545 *L 0.00171 *D NOR2XL
*I *1058:Y O *C 35.525 104.835 *L 0 *D AOI21X1

*CAP
1 *536:2 0.000198126
2 *536:3 0.000198126
3 *536:4 1.97822e-05
4 *536:5 1.97822e-05

*RES
1 *536:5 *1058:Y 1.4
2 *536:4 *536:5 0.124283
3 *536:3 *536:4 1.4
4 *536:2 *536:3 1.1186
5 *536:1 *536:2 1.4
6 *1025:B *536:1 1.4
*END

*D_NET *537 0.00325981

*CONN
*I *1020:A I *C 69.745 43.935 *L 0.00152 *D NAND4XL
*I *1057:Y O *C 66.59 59.855 *L 0 *D AOI32XL

*CAP
1 *537:1 4.32178e-05
2 *537:2 4.32178e-05
3 *537:3 0.000288022
4 *537:4 0.000288022
5 *537:5 0.00129576
6 *537:6 0.00129867
7 *537:7 2.91103e-06

*RES
1 *537:7 *1057:Y 1.4
2 *537:6 *537:7 0.0149997
3 *537:5 *537:6 7.0713
4 *537:4 *537:5 1.4
5 *537:3 *537:4 1.36718
6 *537:2 *537:3 1.4
7 *537:1 *537:2 0.248567
8 *1020:A *537:1 1.4
*END

*D_NET *538 0.000348516

*CONN
*I *1004:A1 I *C 23.925 104.545 *L 0.00277 *D OAI22X1
*I *1056:Y O *C 24.495 106.865 *L 0 *D NOR2BX1

*CAP
1 *538:2 3.53656e-05
2 *538:3 3.53656e-05
3 *538:4 0.000138296
4 *538:5 0.000138892
5 *538:6 5.96104e-07

*RES
1 *538:6 *1056:Y 1.4
2 *538:5 *538:6 0.00428578
3 *538:4 *538:5 0.994301
4 *538:3 *538:4 1.4
5 *538:2 *538:3 0.248567
6 *538:1 *538:2 1.4
7 *1004:A1 *538:1 1.4
*END

*D_NET *539 0.00134073

*CONN
*I *1004:B1 I *C 23.345 104.545 *L 0.00282 *D OAI22X1
*I *1055:Y O *C 13.485 105.125 *L 0 *D AND2X1

*CAP
1 *539:1 5.1861e-05
2 *539:2 5.1861e-05
3 *539:3 0.000601216
4 *539:4 0.000601216
5 *539:5 1.7287e-05
6 *539:6 1.7287e-05

*RES
1 *539:6 *1055:Y 1.4
2 *539:5 *539:6 0.124288
3 *539:4 *539:5 1.4
4 *539:3 *539:4 4.22564
5 *539:2 *539:3 1.4
6 *539:1 *539:2 0.372863
7 *1004:B1 *539:1 1.4
*END

*D_NET *540 0.00147428

*CONN
*I *1344:A1N I *C 22.765 68.005 *L 0.00164 *D OAI2BB1X2
*I *1054:Y O *C 14.645 70.035 *L 0 *D NAND2XL

*CAP
1 *540:2 2.06397e-05
2 *540:3 2.06397e-05
3 *540:4 0.000159229
4 *540:5 0.000159229
5 *540:6 0.000557273
6 *540:7 0.000557273

*RES
1 *540:8 *1054:Y 1.4
2 *540:7 *540:8 1.4
3 *540:6 *540:7 3.35564
4 *540:5 *540:6 1.4
5 *540:4 *540:5 0.869985
6 *540:3 *540:4 1.4
7 *540:2 *540:3 0.124283
8 *540:1 *540:2 1.4
9 *1344:A1N *540:1 1.4
*END

*D_NET *541 0.000896314

*CONN
*I *1014:D I *C 78.445 47.415 *L 0.00166 *D NAND4XL
*I *1053:Y O *C 74.675 47.705 *L 0 *D AOI22X1

*CAP
1 *541:1 4.32789e-05
2 *541:2 4.32789e-05
3 *541:3 0.000340052
4 *541:4 0.000340052
5 *541:5 6.48267e-05
6 *541:6 6.48267e-05

*RES
1 *541:6 *1053:Y 1.4
2 *541:5 *541:6 0.37285
3 *541:4 *541:5 1.4
4 *541:3 *541:4 1.61575
5 *541:2 *541:3 1.4
6 *541:1 *541:2 0.248578
7 *1014:D *541:1 1.4
*END

*D_NET *542 0.00243559

*CONN
*I *984:C I *C 108.895 96.425 *L 0.00164 *D NAND4XL
*I *1052:Y O *C 111.795 110.635 *L 0 *D AOI222XL

*CAP
1 *542:1 0.000934232
2 *542:2 0.000934232
3 *542:3 0.000191752
4 *542:4 0.000191752
5 *542:5 9.18122e-05
6 *542:6 9.18122e-05

*RES
1 *542:6 *1052:Y 1.4
2 *542:5 *542:6 0.62144
3 *542:4 *542:5 1.4
4 *542:3 *542:4 1.24283
5 *542:2 *542:3 1.4
6 *542:1 *542:2 5.46853
7 *984:C *542:1 1.4
*END

*D_NET *543 0.000531182

*CONN
*I *989:A I *C 22.475 83.955 *L 0.00259 *D NOR3X1
*I *1051:Y O *C 18.995 84.245 *L 0 *D AOI211X1

*CAP
1 *543:1 2.10222e-05
2 *543:2 2.10222e-05
3 *543:3 0.000244569
4 *543:4 0.000244569

*RES
1 *543:5 *1051:Y 1.4
2 *543:4 *543:5 1.4
3 *543:3 *543:4 1.4914
4 *543:2 *543:3 1.4
5 *543:1 *543:2 0.124283
6 *989:A *543:1 1.4
*END

*D_NET *544 0.00283169

*CONN
*I *1000:A1 I *C 28.565 86.275 *L 0.00277 *D OAI22X1
*I *1050:Y O *C 34.365 75.545 *L 0 *D AOI21X1

*CAP
1 *544:1 0.000903418
2 *544:2 0.000903418
3 *544:3 0.000486762
4 *544:4 0.000486762
5 *544:5 2.56639e-05
6 *544:6 2.56639e-05

*RES
1 *544:6 *1050:Y 1.4
2 *544:5 *544:6 0.124283
3 *544:4 *544:5 1.4
4 *544:3 *544:4 2.48565
5 *544:2 *544:3 1.4
6 *544:1 *544:2 4.47434
7 *1000:A1 *544:1 1.4
*END

*D_NET *545 0.00105338

*CONN
*I *1018:C I *C 67.135 104.835 *L 0.00285 *D NAND3X1
*I *1049:Y O *C 62.495 106.575 *L 0 *D AOI22X1

*CAP
1 *545:2 2.52392e-05
2 *545:3 2.52392e-05
3 *545:4 0.000102386
4 *545:5 0.000102386
5 *545:6 0.000378589
6 *545:7 0.000378589
7 *545:8 2.04773e-05
8 *545:9 2.04773e-05

*RES
1 *545:9 *1049:Y 1.4
2 *545:8 *545:9 0.124283
3 *545:7 *545:8 1.4
4 *545:6 *545:7 1.86424
5 *545:5 *545:6 1.4
6 *545:4 *545:5 0.621417
7 *545:3 *545:4 1.4
8 *545:2 *545:3 0.124283
9 *545:1 *545:2 1.4
10 *1018:C *545:1 1.4
*END

*D_NET *546 0.000579984

*CONN
*I *985:AN I *C 103.385 85.985 *L 0.0018 *D NOR3BX1
*I *1048:Y O *C 105.415 84.535 *L 0 *D AOI222XL

*CAP
1 *546:2 7.70873e-05
2 *546:3 7.70873e-05
3 *546:4 0.0001232
4 *546:5 0.0001232
5 *546:6 8.97045e-05
6 *546:7 8.97045e-05

*RES
1 *546:8 *1048:Y 1.4
2 *546:7 *546:8 1.4
3 *546:6 *546:7 0.497152
4 *546:5 *546:6 1.4
5 *546:4 *546:5 0.621444
6 *546:3 *546:4 1.4
7 *546:2 *546:3 0.372849
8 *546:1 *546:2 1.4
9 *985:AN *546:1 1.4
*END

*D_NET *547 0.00173681

*CONN
*I *983:B I *C 98.165 106.575 *L 0.00158 *D NAND4XL
*I *1047:Y O *C 105.415 110.635 *L 0 *D AOI222XL

*CAP
1 *547:1 6.13994e-05
2 *547:2 6.13994e-05
3 *547:3 0.000605017
4 *547:4 0.000605017
5 *547:5 0.000201987
6 *547:6 0.000201987

*RES
1 *547:6 *1047:Y 1.4
2 *547:5 *547:6 1.36717
3 *547:4 *547:5 1.4
4 *547:3 *547:4 3.10707
5 *547:2 *547:3 1.4
6 *547:1 *547:2 0.372866
7 *983:B *547:1 1.4
*END

*D_NET *548 0.00122917

*CONN
*I *1005:C0 I *C 91.785 78.445 *L 0.00277 *D AOI221X1
*I *1046:Y O *C 85.405 79.025 *L 0 *D OAI21X1

*CAP
1 *548:1 2.46401e-05
2 *548:2 2.46401e-05
3 *548:3 0.000565307
4 *548:4 0.000565307
5 *548:5 2.46401e-05
6 *548:6 2.46401e-05

*RES
1 *548:6 *1046:Y 1.4
2 *548:5 *548:6 0.124289
3 *548:4 *548:5 1.4
4 *548:3 *548:4 2.73422
5 *548:2 *548:3 1.4
6 *548:1 *548:2 0.124289
7 *1005:C0 *548:1 1.4
*END

*D_NET *549 0.00157414

*CONN
*I *993:C I *C 60.175 33.785 *L 0.00168 *D AND4X1
*I *1045:Y O *C 59.595 43.645 *L 0 *D AOI222XL

*CAP
1 *549:2 2.61838e-05
2 *549:3 2.61838e-05
3 *549:4 0.000734702
4 *549:5 0.000734702
5 *549:6 2.61838e-05
6 *549:7 2.61838e-05

*RES
1 *549:8 *1045:Y 1.4
2 *549:7 *549:8 1.4
3 *549:6 *549:7 0.124289
4 *549:5 *549:6 1.4
5 *549:4 *549:5 4.22564
6 *549:3 *549:4 1.4
7 *549:2 *549:3 0.124289
8 *549:1 *549:2 1.4
9 *993:C *549:1 1.4
*END

*D_NET *550 0.000604965

*CONN
*I *1010:A I *C 88.885 109.765 *L 0.00157 *D NAND2XL
*I *1044:Y O *C 86.565 110.055 *L 0 *D AOI21X1

*CAP
1 *550:1 4.09329e-05
2 *550:2 4.09329e-05
3 *550:3 0.00020015
4 *550:4 0.00020015
5 *550:5 6.13994e-05
6 *550:6 6.13994e-05

*RES
1 *550:6 *1044:Y 1.4
2 *550:5 *550:6 0.372866
3 *550:4 *550:5 1.4
4 *550:3 *550:4 0.994263
5 *550:2 *550:3 1.4
6 *550:1 *550:2 0.248578
7 *1010:A *550:1 1.4
*END

*D_NET *551 0.00561945

*CONN
*I *1008:A I *C 109.475 94.105 *L 0.00157 *D NAND2XL
*I *1043:Y O *C 77.575 94.685 *L 0 *D AOI22X1

*CAP
1 *551:1 2.29546e-05
2 *551:2 2.29546e-05
3 *551:3 0.00276254
4 *551:4 0.00276254
5 *551:5 2.42286e-05
6 *551:6 2.42286e-05

*RES
1 *551:6 *1043:Y 1.4
2 *551:5 *551:6 0.124289
3 *551:4 *551:5 1.4
4 *551:3 *551:4 13.6712
5 *551:2 *551:3 1.4
6 *551:1 *551:2 0.124283
7 *1008:A *551:1 1.4
*END

*D_NET *552 0.000754235

*CONN
*I *987:A I *C 96.425 78.735 *L 0.00264 *D NAND3X1
*I *1042:Y O *C 96.425 74.095 *L 0 *D AOI222XL

*CAP
1 *552:1 0.000377117
2 *552:2 0.000377117

*RES
1 *552:2 *1042:Y 1.4
2 *552:1 *552:2 1.98861
3 *987:A *552:1 1.4
*END

*D_NET *553 0.002461

*CONN
*I *988:C I *C 88.015 42.195 *L 0.00164 *D NAND4XL
*I *1041:Y O *C 100.775 43.645 *L 0 *D AOI222XL

*CAP
1 *553:2 2.55069e-05
2 *553:3 2.55069e-05
3 *553:4 0.000108197
4 *553:5 0.000108197
5 *553:6 0.0010968
6 *553:7 0.0010968

*RES
1 *553:8 *1041:Y 1.4
2 *553:7 *553:8 1.4
3 *553:6 *553:7 5.34442
4 *553:5 *553:6 1.4
5 *553:4 *553:5 0.621444
6 *553:3 *553:4 1.4
7 *553:2 *553:3 0.124289
8 *553:1 *553:2 1.4
9 *988:C *553:1 1.4
*END

*D_NET *554 0.00159758

*CONN
*I *1003:A I *C 71.485 73.225 *L 0.00157 *D NAND2XL
*I *1040:Y O *C 63.255 73.88 *L 0 *D AOI21XL

*CAP
1 *554:1 2.412e-05
2 *554:2 2.412e-05
3 *554:3 0.000735165
4 *554:4 0.000735165
5 *554:5 3.03579e-05
6 *554:6 3.95068e-05
7 *554:7 9.14895e-06

*RES
1 *554:7 *1040:Y 1.4
2 *554:6 *554:7 0.047142
3 *554:5 *554:6 0.156426
4 *554:4 *554:5 1.4
5 *554:3 *554:4 3.47992
6 *554:2 *554:3 1.4
7 *554:1 *554:2 0.124284
8 *1003:A *554:1 1.4
*END

*D_NET *555 0.00231953

*CONN
*I *991:A I *C 75.255 110.345 *L 0.00152 *D NAND4XL
*I *1039:Y O *C 74.965 95.845 *L 0 *D AOI22XL

*CAP
1 *555:2 2.52392e-05
2 *555:3 2.52392e-05
3 *555:4 0.00113453
4 *555:5 0.00113453

*RES
1 *555:5 *1039:Y 1.4
2 *555:4 *555:5 6.21433
3 *555:3 *555:4 1.4
4 *555:2 *555:3 0.124283
5 *555:1 *555:2 1.4
6 *991:A *555:1 1.4
*END

*D_NET *556 0.000726204

*CONN
*I *989:B I *C 22.765 83.955 *L 0.00272 *D NOR3X1
*I *1038:Y O *C 26.825 84.245 *L 0 *D AOI211X1

*CAP
1 *556:1 4.20444e-05
2 *556:2 4.20444e-05
3 *556:3 0.000296138
4 *556:4 0.000296138
5 *556:5 2.49191e-05
6 *556:6 2.49191e-05

*RES
1 *556:6 *1038:Y 1.4
2 *556:5 *556:6 0.124289
3 *556:4 *556:5 1.4
4 *556:3 *556:4 1.73996
5 *556:2 *556:3 1.4
6 *556:1 *556:2 0.248565
7 *989:B *556:1 1.4
*END

*D_NET *557 0.000668847

*CONN
*I *1019:B I *C 97.295 70.615 *L 0.00171 *D NOR2XL
*I *1037:Y O *C 100.485 70.035 *L 0 *D NAND2XL

*CAP
1 *557:2 0.000287505
2 *557:3 0.000287505
3 *557:4 4.69183e-05
4 *557:5 4.69183e-05

*RES
1 *557:5 *1037:Y 1.4
2 *557:4 *557:5 0.248576
3 *557:3 *557:4 1.4
4 *557:2 *557:3 1.36718
5 *557:1 *557:2 1.4
6 *1019:B *557:1 1.4
*END

*D_NET *558 0.00134305

*CONN
*I *1019:A I *C 97.005 70.325 *L 0.00162 *D NOR2XL
*I *1036:Y O *C 90.335 70.035 *L 0 *D NAND2XL

*CAP
1 *558:1 4.69183e-05
2 *558:2 4.69183e-05
3 *558:3 0.000601148
4 *558:4 0.000601148
5 *558:5 2.34591e-05
6 *558:6 2.34591e-05

*RES
1 *558:6 *1036:Y 1.4
2 *558:5 *558:6 0.124288
3 *558:4 *558:5 1.4
4 *558:3 *558:4 2.85864
5 *558:2 *558:3 1.4
6 *558:1 *558:2 0.248576
7 *1019:A *558:1 1.4
*END

*D_NET *559 0.00146311

*CONN
*I *983:C I *C 97.875 106.865 *L 0.00164 *D NAND4XL
*I *1035:Y O *C 105.125 105.125 *L 0 *D AOI221X1

*CAP
1 *559:1 0.000102332
2 *559:2 0.000102332
3 *559:3 0.00061086
4 *559:4 0.00061086
5 *559:5 1.83624e-05
6 *559:6 1.83624e-05

*RES
1 *559:6 *1035:Y 1.4
2 *559:5 *559:6 0.124288
3 *559:4 *559:5 1.4
4 *559:3 *559:4 3.10707
5 *559:2 *559:3 1.4
6 *559:1 *559:2 0.621444
7 *983:C *559:1 1.4
*END

*D_NET *560 0.00157414

*CONN
*I *1006:C0 I *C 55.245 34.075 *L 0.00277 *D AOI221X1
*I *1034:Y O *C 54.665 43.935 *L 0 *D NAND2XL

*CAP
1 *560:2 2.61838e-05
2 *560:3 2.61838e-05
3 *560:4 0.000734702
4 *560:5 0.000734702
5 *560:6 2.61838e-05
6 *560:7 2.61838e-05

*RES
1 *560:8 *1034:Y 1.4
2 *560:7 *560:8 1.4
3 *560:6 *560:7 0.124289
4 *560:5 *560:6 1.4
5 *560:4 *560:5 4.22564
6 *560:3 *560:4 1.4
7 *560:2 *560:3 0.124289
8 *560:1 *560:2 1.4
9 *1006:C0 *560:1 1.4
*END

*D_NET *561 0.000286682

*CONN
*I *1016:B I *C 54.665 104.545 *L 0.00171 *D NOR2XL
*I *1033:Y O *C 54.665 106.575 *L 0 *D NAND2XL

*CAP
1 *561:1 0.000143341
2 *561:2 0.000143341

*RES
1 *561:2 *1033:Y 1.4
2 *561:1 *561:2 0.869984
3 *1016:B *561:1 1.4
*END

*D_NET *562 0.00067322

*CONN
*I *1016:A I *C 54.955 104.835 *L 0.00162 *D NOR2XL
*I *1032:Y O *C 54.955 101.355 *L 0 *D NAND2XL

*CAP
1 *562:2 2.52392e-05
2 *562:3 2.52392e-05
3 *562:4 0.000285116
4 *562:5 0.000285116
5 *562:6 2.62548e-05
6 *562:7 2.62548e-05

*RES
1 *562:8 *1032:Y 1.4
2 *562:7 *562:8 1.4
3 *562:6 *562:7 0.124289
4 *562:5 *562:6 1.4
5 *562:4 *562:5 1.49146
6 *562:3 *562:4 1.4
7 *562:2 *562:3 0.124283
8 *562:1 *562:2 1.4
9 *1016:A *562:1 1.4
*END

*D_NET *563 0.000907466

*CONN
*I *996:A I *C 26.535 73.225 *L 0.00564 *D NOR2X2
*I *1031:Y O *C 22.475 75.255 *L 0 *D NOR3X1

*CAP
1 *563:2 0.000294504
2 *563:3 0.000294504
3 *563:4 0.000159229
4 *563:5 0.000159229

*RES
1 *563:5 *1031:Y 1.4
2 *563:4 *563:5 0.869985
3 *563:3 *563:4 1.4
4 *563:2 *563:3 1.73996
5 *563:1 *563:2 1.4
6 *996:A *563:1 1.4
*END

*D_NET *564 0.000848381

*CONN
*I *992:B I *C 116.725 99.325 *L 0.00171 *D NOR2XL
*I *1030:Y O *C 113.245 101.355 *L 0 *D NAND2XL

*CAP
1 *564:1 0.000160682
2 *564:2 0.000160682
3 *564:3 0.000263508
4 *564:4 0.000263508

*RES
1 *564:5 *1030:Y 1.4
2 *564:4 *564:5 1.4
3 *564:3 *564:4 1.49146
4 *564:2 *564:3 1.4
5 *564:1 *564:2 0.869979
6 *992:B *564:1 1.4
*END

*D_NET *565 0.00138917

*CONN
*I *1003:B I *C 72.065 73.225 *L 0.00167 *D NAND2XL
*I *1029:Y O *C 72.355 67.715 *L 0 *D NOR2XL

*CAP
1 *565:2 0.00013128
2 *565:3 0.00013128
3 *565:4 0.000458279
4 *565:5 0.000458279
5 *565:6 0.000105024
6 *565:7 0.000105024

*RES
1 *565:8 *1029:Y 1.4
2 *565:7 *565:8 1.4
3 *565:6 *565:7 0.497131
4 *565:5 *565:6 1.4
5 *565:4 *565:5 2.36139
6 *565:3 *565:4 1.4
7 *565:2 *565:3 0.621414
8 *565:1 *565:2 1.4
9 *1003:B *565:1 1.4
*END

*D_NET *566 0.000626062

*CONN
*I *982:B I *C 69.455 80.765 *L 0.00272 *D NOR3X1
*I *1028:Y O *C 72.645 80.475 *L 0 *D NAND2XL

*CAP
1 *566:1 2.42286e-05
2 *566:2 2.42286e-05
3 *566:3 0.000288803
4 *566:4 0.000288803

*RES
1 *566:5 *1028:Y 1.4
2 *566:4 *566:5 1.4
3 *566:3 *566:4 1.36718
4 *566:2 *566:3 1.4
5 *566:1 *566:2 0.124289
6 *982:B *566:1 1.4
*END

*D_NET *567 0.000979492

*CONN
*I *1012:B I *C 25.665 101.935 *L 0.00171 *D NOR2XL
*I *1027:Y O *C 28.565 99.035 *L 0 *D NOR2XL

*CAP
1 *567:2 0.000240555
2 *567:3 0.000240555
3 *567:4 0.000249191
4 *567:5 0.000249191

*RES
1 *567:5 *1027:Y 1.4
2 *567:4 *567:5 1.24289
3 *567:3 *567:4 1.4
4 *567:2 *567:3 1.24283
5 *567:1 *567:2 1.4
6 *1012:B *567:1 1.4
*END

*D_NET *568 0.000326091

*CONN
*I *1012:A I *C 25.375 101.645 *L 0.00162 *D NOR2XL
*I *1026:Y O *C 23.055 101.645 *L 0 *D AOI21X1

*CAP
1 *568:2 0.000163046
2 *568:3 0.000163046

*RES
1 *568:4 *1026:Y 1.4
2 *568:3 *568:4 1.4
3 *568:2 *568:3 0.994265
4 *568:1 *568:2 1.4
5 *1012:A *568:1 1.4
*END

*D_NET *569 0.00188302

*CONN
*I *1009:B0 I *C 47.125 107.155 *L 0.00277 *D AOI21X1
*I *1025:Y O *C 38.425 104.255 *L 0 *D NOR2XL

*CAP
1 *569:1 0.000200391
2 *569:2 0.000200391
3 *569:3 0.000741121
4 *569:4 0.000741121

*RES
1 *569:5 *1025:Y 1.4
2 *569:4 *569:5 1.4
3 *569:3 *569:4 3.72849
4 *569:2 *569:3 1.4
5 *569:1 *569:2 1.24283
6 *1009:B0 *569:1 1.4
*END

*D_NET *570 0.000456509

*CONN
*I *999:A I *C 116.725 47.415 *L 0.00162 *D NOR2XL
*I *1024:Y O *C 119.625 47.705 *L 0 *D NAND2XL

*CAP
1 *570:2 0.000207968
2 *570:3 0.000207968
3 *570:4 2.02866e-05
4 *570:5 2.02866e-05

*RES
1 *570:5 *1024:Y 1.4
2 *570:4 *570:5 0.124283
3 *570:3 *570:4 1.4
4 *570:2 *570:3 1.24283
5 *570:1 *570:2 1.4
6 *999:A *570:1 1.4
*END

*D_NET *571 0.000647651

*CONN
*I *1001:A I *C 28.275 54.955 *L 0.00157 *D NAND2XL
*I *1023:Y O *C 24.795 54.375 *L 0 *D AOI22X1

*CAP
1 *571:1 2.56639e-05
2 *571:2 2.56639e-05
3 *571:3 0.000275415
4 *571:4 0.000275415
5 *571:5 2.2747e-05
6 *571:6 2.2747e-05

*RES
1 *571:6 *1023:Y 1.4
2 *571:5 *571:6 0.124284
3 *571:4 *571:5 1.4
4 *571:3 *571:4 1.49139
5 *571:2 *571:3 1.4
6 *571:1 *571:2 0.124283
7 *1001:A *571:1 1.4
*END

*D_NET *572 0.000453996

*CONN
*I *996:B I *C 26.825 72.935 *L 0.00542 *D NOR2X2
*I *1022:Y O *C 27.695 71.195 *L 0 *D OAI22X1

*CAP
1 *572:2 7.30143e-05
2 *572:3 7.30143e-05
3 *572:4 0.000153984
4 *572:5 0.000153984

*RES
1 *572:5 *1022:Y 1.4
2 *572:4 *572:5 0.745696
3 *572:3 *572:4 1.4
4 *572:2 *572:3 0.372848
5 *572:1 *572:2 1.4
6 *996:B *572:1 1.4
*END

*D_NET *573 0.00116371

*CONN
*I *1001:B I *C 28.855 54.955 *L 0.00167 *D NAND2XL
*I *1021:Y O *C 29.145 49.155 *L 0 *D AOI22X1

*CAP
1 *573:2 2.43381e-05
2 *573:3 2.43381e-05
3 *573:4 0.000507088
4 *573:5 0.000507088
5 *573:6 5.04313e-05
6 *573:7 5.04313e-05

*RES
1 *573:8 *1021:Y 1.4
2 *573:7 *573:8 1.4
3 *573:6 *573:7 0.248566
4 *573:5 *573:6 1.4
5 *573:4 *573:5 2.48571
6 *573:3 *573:4 1.4
7 *573:2 *573:3 0.124283
8 *573:1 *573:2 1.4
9 *1001:B *573:1 1.4
*END

*D_NET *574 0.00166341

*CONN
*I *994:B I *C 78.445 41.905 *L 0.00171 *D NOR2XL
*I *1020:Y O *C 70.905 43.935 *L 0 *D NAND4XL

*CAP
1 *574:2 0.000680441
2 *574:3 0.000680441
3 *574:4 0.000151262
4 *574:5 0.000151262

*RES
1 *574:5 *1020:Y 1.4
2 *574:4 *574:5 0.869984
3 *574:3 *574:4 1.4
4 *574:2 *574:3 3.23151
5 *574:1 *574:2 1.4
6 *994:B *574:1 1.4
*END

*D_NET *575 0.001374

*CONN
*I *987:C I *C 97.005 78.735 *L 0.00285 *D NAND3X1
*I *1019:Y O *C 97.585 70.905 *L 0 *D NOR2XL

*CAP
1 *575:2 2.56958e-05
2 *575:3 2.56958e-05
3 *575:4 0.000635168
4 *575:5 0.000635168
5 *575:6 2.61369e-05
6 *575:7 2.61369e-05

*RES
1 *575:8 *1019:Y 1.4
2 *575:7 *575:8 1.4
3 *575:6 *575:7 0.124289
4 *575:5 *575:6 1.4
5 *575:4 *575:5 3.35578
6 *575:3 *575:4 1.4
7 *575:2 *575:3 0.124283
8 *575:1 *575:2 1.4
9 *987:C *575:1 1.4
*END

*D_NET *576 0.000590445

*CONN
*I *990:A I *C 70.325 104.835 *L 0.00162 *D NOR2XL
*I *1018:Y O *C 67.425 104.255 *L 0 *D NAND3X1

*CAP
1 *576:1 2.04773e-05
2 *576:2 2.04773e-05
3 *576:3 0.000252392
4 *576:4 0.000252392
5 *576:5 2.23529e-05
6 *576:6 2.23529e-05

*RES
1 *576:6 *1018:Y 1.4
2 *576:5 *576:6 0.124286
3 *576:4 *576:5 1.4
4 *576:3 *576:4 1.24283
5 *576:2 *576:3 1.4
6 *576:1 *576:2 0.124283
7 *990:A *576:1 1.4
*END

*D_NET *577 0.000570361

*CONN
*I *995:A I *C 92.655 39.005 *L 0.00162 *D NOR2XL
*I *1017:Y O *C 92.365 42.485 *L 0 *D NAND4XL

*CAP
1 *577:2 2.55069e-05
2 *577:3 2.55069e-05
3 *577:4 0.000259674
4 *577:5 0.000259674

*RES
1 *577:5 *1017:Y 1.4
2 *577:4 *577:5 1.49146
3 *577:3 *577:4 1.4
4 *577:2 *577:3 0.124289
5 *577:1 *577:2 1.4
6 *995:A *577:1 1.4
*END

*D_NET *578 0.000562043

*CONN
*I *977:B I *C 51.475 104.545 *L 0.00167 *D NAND2XL
*I *1016:Y O *C 54.375 104.255 *L 0 *D NOR2XL

*CAP
1 *578:1 2.23506e-05
2 *578:2 2.23506e-05
3 *578:3 0.000258671
4 *578:4 0.000258671

*RES
1 *578:5 *1016:Y 1.4
2 *578:4 *578:5 1.4
3 *578:3 *578:4 1.24287
4 *578:2 *578:3 1.4
5 *578:1 *578:2 0.124286
6 *977:B *578:1 1.4
*END

*D_NET *579 0.00450183

*CONN
*I *985:C I *C 102.225 85.985 *L 0.00291 *D NOR3BX1
*I *1015:Y O *C 117.885 73.805 *L 0 *D NAND4XL

*CAP
1 *579:2 0.00123577
2 *579:3 0.00123577
3 *579:4 0.000993082
4 *579:5 0.000993082
5 *579:6 2.20611e-05
6 *579:7 2.20611e-05

*RES
1 *579:8 *1015:Y 1.4
2 *579:7 *579:8 1.4
3 *579:6 *579:7 0.124289
4 *579:5 *579:6 1.4
5 *579:4 *579:5 5.21997
6 *579:3 *579:4 1.4
7 *579:2 *579:3 6.83584
8 *579:1 *579:2 1.4
9 *985:C *579:1 1.4
*END

*D_NET *580 0.000821138

*CONN
*I *994:A I *C 78.155 42.195 *L 0.00162 *D NOR2XL
*I *1014:Y O *C 78.155 47.705 *L 0 *D NAND4XL

*CAP
1 *580:1 0.000410569
2 *580:2 0.000410569

*RES
1 *580:2 *1014:Y 1.4
2 *580:1 *580:2 2.36139
3 *994:A *580:1 1.4
*END

*D_NET *581 0.00241085

*CONN
*I *995:B I *C 92.945 39.295 *L 0.00171 *D NOR2XL
*I *1013:Y O *C 106.575 38.715 *L 0 *D NAND4XL

*CAP
1 *581:1 2.16395e-05
2 *581:2 2.16395e-05
3 *581:3 0.0011635
4 *581:4 0.0011635
5 *581:5 2.02866e-05
6 *581:6 2.02866e-05

*RES
1 *581:6 *1013:Y 1.4
2 *581:5 *581:6 0.124283
3 *581:4 *581:5 1.4
4 *581:3 *581:4 5.84153
5 *581:2 *581:3 1.4
6 *581:1 *581:2 0.124289
7 *995:B *581:1 1.4
*END

*D_NET *582 0.000882789

*CONN
*I *998:B I *C 26.825 107.155 *L 0.00167 *D NAND2XL
*I *1012:Y O *C 25.955 102.225 *L 0 *D NOR2XL

*CAP
1 *582:2 4.4028e-05
2 *582:3 4.4028e-05
3 *582:4 0.000374824
4 *582:5 0.000374824
5 *582:6 2.25424e-05
6 *582:7 2.25424e-05

*RES
1 *582:8 *1012:Y 1.4
2 *582:7 *582:8 1.4
3 *582:6 *582:7 0.124283
4 *582:5 *582:6 1.4
5 *582:4 *582:5 2.11286
6 *582:3 *582:4 1.4
7 *582:2 *582:3 0.248578
8 *582:1 *582:2 1.4
9 *998:B *582:1 1.4
*END

*D_NET *583 0.0029251

*CONN
*I *985:B I *C 102.805 86.275 *L 0.00272 *D NOR3BX1
*I *1011:Y O *C 86.855 86.855 *L 0 *D OAI211X1

*CAP
1 *583:1 4.92801e-05
2 *583:2 4.92801e-05
3 *583:3 0.00141327
4 *583:4 0.00141327

*RES
1 *583:5 *1011:Y 1.4
2 *583:4 *583:5 1.4
3 *583:3 *583:4 6.83556
4 *583:2 *583:3 1.4
5 *583:1 *583:2 0.248577
6 *985:B *583:1 1.4
*END

*D_NET *584 0.00105523

*CONN
*I *1345:C0 I *C 87.145 114.985 *L 0.00277 *D AOI221X1
*I *1010:Y O *C 89.465 110.345 *L 0 *D NAND2XL

*CAP
1 *584:1 4.09329e-05
2 *584:2 4.09329e-05
3 *584:3 0.00020015
4 *584:4 0.00020015
5 *584:5 0.000286531
6 *584:6 0.000286531

*RES
1 *584:6 *1010:Y 1.4
2 *584:5 *584:6 1.74004
3 *584:4 *584:5 1.4
4 *584:3 *584:4 0.994263
5 *584:2 *584:3 1.4
6 *584:1 *584:2 0.248578
7 *1345:C0 *584:1 1.4
*END

*D_NET *585 0.00071216

*CONN
*I *997:A I *C 47.705 112.085 *L 0.00267 *D NAND2X1
*I *1009:Y O *C 47.705 106.865 *L 0 *D AOI21X1

*CAP
1 *585:1 0.00035608
2 *585:2 0.00035608

*RES
1 *585:2 *1009:Y 1.4
2 *585:1 *585:2 2.2371
3 *997:A *585:1 1.4
*END

*D_NET *586 0.00174665

*CONN
*I *992:A I *C 116.435 99.615 *L 0.00162 *D NOR2XL
*I *1008:Y O *C 110.055 94.685 *L 0 *D NAND2XL

*CAP
1 *586:1 0.000390228
2 *586:2 0.000390228
3 *586:3 0.000483099
4 *586:4 0.000483099

*RES
1 *586:5 *1008:Y 1.4
2 *586:4 *586:5 1.4
3 *586:3 *586:4 2.73435
4 *586:2 *586:3 1.4
5 *586:1 *586:2 2.11281
6 *992:A *586:1 1.4
*END

*D_NET *587 0.000538676

*CONN
*I *999:B I *C 116.435 47.125 *L 0.00171 *D NOR2XL
*I *1007:Y O *C 113.245 47.705 *L 0 *D NAND2XL

*CAP
1 *587:1 4.05732e-05
2 *587:2 4.05732e-05
3 *587:3 0.000228765
4 *587:4 0.000228765

*RES
1 *587:5 *1007:Y 1.4
2 *587:4 *587:5 1.4
3 *587:3 *587:4 1.36711
4 *587:2 *587:3 1.4
5 *587:1 *587:2 0.248566
6 *999:B *587:1 1.4
*END

*D_NET *588 0.000906019

*CONN
*I *993:D I *C 59.885 34.075 *L 0.0016 *D AND4X1
*I *1006:Y O *C 55.825 33.495 *L 0 *D AOI221X1

*CAP
1 *588:1 2.16089e-05
2 *588:2 2.16089e-05
3 *588:3 0.000366574
4 *588:4 0.000366574
5 *588:5 6.48267e-05
6 *588:6 6.48267e-05

*RES
1 *588:6 *1006:Y 1.4
2 *588:5 *588:6 0.37285
3 *588:4 *588:5 1.4
4 *588:3 *588:4 1.74004
5 *588:2 *588:3 1.4
6 *588:1 *588:2 0.124283
7 *993:D *588:1 1.4
*END

*D_NET *589 0.000869434

*CONN
*I *987:B I *C 96.715 79.025 *L 0.00285 *D NAND3X1
*I *1005:Y O *C 92.365 79.025 *L 0 *D AOI221X1

*CAP
1 *589:1 2.46401e-05
2 *589:2 2.46401e-05
3 *589:3 0.000385437
4 *589:4 0.000385437
5 *589:5 2.46401e-05
6 *589:6 2.46401e-05

*RES
1 *589:6 *1005:Y 1.4
2 *589:5 *589:6 0.124289
3 *589:4 *589:5 1.4
4 *589:3 *589:4 1.86424
5 *589:2 *589:3 1.4
6 *589:1 *589:2 0.124289
7 *987:B *589:1 1.4
*END

*D_NET *590 0.000604096

*CONN
*I *986:A I *C 26.825 104.835 *L 0.00263 *D NOR2X1
*I *1004:Y O *C 23.635 103.965 *L 0 *D OAI22X1

*CAP
1 *590:1 6.70519e-05
2 *590:2 6.70519e-05
3 *590:3 0.000234996
4 *590:4 0.000234996

*RES
1 *590:5 *1004:Y 1.4
2 *590:4 *590:5 1.4
3 *590:3 *590:4 1.36711
4 *590:2 *590:3 1.4
5 *590:1 *590:2 0.372858
6 *986:A *590:1 1.4
*END

*D_NET *591 0.00224205

*CONN
*I *982:C I *C 69.745 81.055 *L 0.00278 *D NOR3X1
*I *1003:Y O *C 72.065 73.805 *L 0 *D NAND2XL

*CAP
1 *591:1 4.84572e-05
2 *591:2 4.84572e-05
3 *591:3 0.000315057
4 *591:4 0.000315057
5 *591:5 0.000652488
6 *591:6 0.000652488
7 *591:7 0.000105024
8 *591:8 0.000105024

*RES
1 *591:9 *1003:Y 1.4
2 *591:8 *591:9 1.4
3 *591:7 *591:8 0.497131
4 *591:6 *591:7 1.4
5 *591:5 *591:6 3.35572
6 *591:4 *591:5 1.4
7 *591:3 *591:4 1.49146
8 *591:2 *591:3 1.4
9 *591:1 *591:2 0.248577
10 *982:C *591:1 1.4
*END

*D_NET *592 0.000722977

*CONN
*I *982:A I *C 69.165 80.765 *L 0.00259 *D NOR3X1
*I *1002:Y O *C 65.975 81.635 *L 0 *D OAI211X1

*CAP
1 *592:1 2.42286e-05
2 *592:2 2.42286e-05
3 *592:3 0.000288803
4 *592:4 0.000288803
5 *592:5 4.84572e-05
6 *592:6 4.84572e-05

*RES
1 *592:6 *1002:Y 1.4
2 *592:5 *592:6 0.248577
3 *592:4 *592:5 1.4
4 *592:3 *592:4 1.36718
5 *592:2 *592:3 1.4
6 *592:1 *592:2 0.124289
7 *982:A *592:1 1.4
*END

*D_NET *593 0.00134677

*CONN
*I *989:C I *C 23.055 83.665 *L 0.00278 *D NOR3X1
*I *1000:Y O *C 28.275 86.855 *L 0 *D OAI22X1

*CAP
1 *593:2 0.000399278
2 *593:3 0.000399278
3 *593:4 0.00027411
4 *593:5 0.00027411

*RES
1 *593:5 *1000:Y 1.4
2 *593:4 *593:5 1.36718
3 *593:3 *593:4 1.4
4 *593:2 *593:3 2.23709
5 *593:1 *593:2 1.4
6 *989:C *593:1 1.4
*END

*D_NET *594 0.00516768

*CONN
*I *988:D I *C 88.305 42.195 *L 0.00166 *D NAND4XL
*I *999:Y O *C 116.145 46.835 *L 0 *D NOR2XL

*CAP
1 *594:1 2.16395e-05
2 *594:2 2.16395e-05
3 *594:3 0.0022579
4 *594:4 0.0022579
5 *594:5 0.000304299
6 *594:6 0.000304299

*RES
1 *594:6 *999:Y 1.4
2 *594:5 *594:6 1.86425
3 *594:4 *594:5 1.4
4 *594:3 *594:4 11.9315
5 *594:2 *594:3 1.4
6 *594:1 *594:2 0.124289
7 *988:D *594:1 1.4
*END

*D_NET *595 0.000281415

*CONN
*I *986:B I *C 27.115 104.835 *L 0.0028 *D NOR2X1
*I *998:Y O *C 26.825 106.575 *L 0 *D NAND2XL

*CAP
1 *595:2 2.2014e-05
2 *595:3 2.2014e-05
3 *595:4 0.000118693
4 *595:5 0.000118693

*RES
1 *595:5 *998:Y 1.4
2 *595:4 *595:5 0.745699
3 *595:3 *595:4 1.4
4 *595:2 *595:3 0.124289
5 *595:1 *595:2 1.4
6 *986:B *595:1 1.4
*END

*D_NET *596 0.00123157

*CONN
*I *981:C0 I *C 50.315 106.865 *L 0.00281 *D AOI211X1
*I *997:Y O *C 47.415 112.665 *L 0 *D NAND2X1

*CAP
1 *596:1 5.93466e-05
2 *596:2 5.93466e-05
3 *596:3 0.00022014
4 *596:4 0.00022014
5 *596:5 0.000336298
6 *596:6 0.000336298

*RES
1 *596:6 *997:Y 1.4
2 *596:5 *596:6 2.11281
3 *596:4 *596:5 1.4
4 *596:3 *596:4 1.24289
5 *596:2 *596:3 1.4
6 *596:1 *596:2 0.37285
7 *981:C0 *596:1 1.4
*END

*D_NET *597 0.00108403

*CONN
*I *1344:B0 I *C 24.795 68.005 *L 0.00561 *D OAI2BB1X2
*I *996:Y O *C 27.115 72.645 *L 0 *D NOR2X2

*CAP
1 *597:1 0.000363953
2 *597:2 0.000363953
3 *597:3 0.000178062
4 *597:4 0.000178062

*RES
1 *597:5 *996:Y 1.4
2 *597:4 *597:5 1.4
3 *597:3 *597:4 0.994263
4 *597:2 *597:3 1.4
5 *597:1 *597:2 1.98854
6 *1344:B0 *597:1 1.4
*END

*D_NET *598 0.00152497

*CONN
*I *974:A0 I *C 23.925 57.855 *L 0.00155 *D AO21X1
*I *979:A I *C 26.245 57.565 *L 0.00564 *D NOR2X2
*I *1001:Y O *C 28.855 54.375 *L 0 *D NAND2XL

*CAP
1 *598:1 4.54941e-05
2 *598:2 4.54941e-05
3 *598:3 0.000166967
4 *598:4 0.000410348
5 *598:5 0.000243381
6 *598:6 2.56639e-05
7 *598:7 0.000256639
8 *598:8 2.56639e-05
9 *598:9 0.000256639
10 *598:11 2.43381e-05
11 *598:12 2.43381e-05

*RES
1 *598:13 *1001:Y 1.4
2 *598:12 *598:13 1.4
3 *598:11 *598:12 0.124283
4 *598:9 *598:11 1.4
5 *598:8 *979:A 1.4
6 *598:7 *598:9 1.24283
7 *598:6 *598:8 0.124283
8 *598:5 *598:7 1.4
9 *598:4 *598:6 1.4
10 *598:4 *598:5 1.24283
11 *598:3 *598:4 0.994264
12 *598:2 *598:3 1.4
13 *598:1 *598:2 0.248567
14 *974:A0 *598:1 1.4
*END

*D_NET *599 0.00168681

*CONN
*I *984:D I *C 109.185 96.425 *L 0.00166 *D NAND4XL
*I *992:Y O *C 117.015 99.035 *L 0 *D NOR2XL

*CAP
1 *599:2 0.000614853
2 *599:3 0.000614853
3 *599:4 0.000206592
4 *599:5 0.000206592
5 *599:6 2.1959e-05
6 *599:7 2.1959e-05

*RES
1 *599:8 *992:Y 1.4
2 *599:7 *599:8 1.4
3 *599:6 *599:7 0.124289
4 *599:5 *599:6 1.4
5 *599:4 *599:5 1.11854
6 *599:3 *599:4 1.4
7 *599:2 *599:3 3.48008
8 *599:1 *599:2 1.4
9 *984:D *599:1 1.4
*END

*D_NET *600 0.00163553

*CONN
*I *990:B I *C 70.615 104.545 *L 0.00171 *D NOR2XL
*I *991:Y O *C 74.095 110.345 *L 0 *D NAND4XL

*CAP
1 *600:1 4.65815e-05
2 *600:2 4.65815e-05
3 *600:3 0.000315057
4 *600:4 0.000315057
5 *600:5 0.000456127
6 *600:6 0.000456127

*RES
1 *600:6 *991:Y 1.4
2 *600:5 *600:6 2.73424
3 *600:4 *600:5 1.4
4 *600:3 *600:4 1.49146
5 *600:2 *600:3 1.4
6 *600:1 *600:2 0.248575
7 *990:B *600:1 1.4
*END

*D_NET *601 0.00277629

*CONN
*I *975:C I *C 81.635 39.005 *L 0.00163 *D NAND4BXL
*I *932:A I *C 83.085 36.685 *L 0.00157 *D NAND2XL
*I *929:A I *C 86.275 36.975 *L 0.00162 *D NOR2XL
*I *995:Y O *C 93.235 39.585 *L 0 *D NOR2XL

*CAP
1 *601:1 2.16395e-05
2 *601:2 2.16395e-05
3 *601:3 0.000127535
4 *601:4 0.000127535
5 *601:5 0.000108197
6 *601:6 0.000151476
7 *601:7 0.000280576
8 *601:8 4.32789e-05
9 *601:9 0.000382604
10 *601:11 0.000102028
11 *601:12 2.16395e-05
12 *601:13 0.000173116
13 *601:14 2.16395e-05
14 *601:15 0.000173116
15 *601:17 0.000510138
16 *601:18 0.000510138

*RES
1 *601:19 *995:Y 1.4
2 *601:18 *601:19 1.4
3 *601:17 *601:18 2.48577
4 *601:15 *601:17 1.4
5 *601:14 *929:A 1.4
6 *601:13 *601:15 0.99431
7 *601:12 *601:14 0.124289
8 *601:11 *601:13 1.4
9 *601:9 *601:12 1.4
10 *601:9 *601:11 0.497155
11 *601:8 *932:A 1.4
12 *601:7 *601:9 1.36718
13 *601:6 *601:8 0.248578
14 *601:6 *601:7 1.4
15 *601:5 *601:6 0.621444
16 *601:4 *601:5 1.4
17 *601:3 *601:4 0.621444
18 *601:2 *601:3 1.4
19 *601:1 *601:2 0.124289
20 *975:C *601:1 1.4
*END

*D_NET *602 0.0015829

*CONN
*I *962:B I *C 83.955 42.195 *L 0.00284 *D NAND2BX1
*I *961:B I *C 81.925 42.195 *L 0.0028 *D NOR2BX1
*I *994:Y O *C 78.735 41.615 *L 0 *D NOR2XL
*I *975:D I *C 81.925 39.005 *L 0.00174 *D NAND4BXL

*CAP
1 *602:1 2.16395e-05
2 *602:2 2.16395e-05
3 *602:3 0.000178548
4 *602:4 0.000178548
5 *602:5 2.16395e-05
6 *602:6 6.49184e-05
7 *602:8 4.32789e-05
8 *602:9 0.000306083
9 *602:10 2.55069e-05
10 *602:11 0.000280576
11 *602:12 0.000194755
12 *602:14 0.000194755
13 *602:16 2.55069e-05
14 *602:17 2.55069e-05

*RES
1 *602:18 *975:D 1.4
2 *602:17 *602:18 1.4
3 *602:16 *602:17 0.124289
4 *602:14 *602:16 1.4
5 *602:13 *994:Y 1.4
6 *602:12 *602:14 1.1186
7 *602:11 *602:13 1.4
8 *602:10 *602:12 1.4
9 *602:9 *602:11 1.36718
10 *602:9 *602:10 0.124289
11 *602:8 *602:9 1.4
12 *602:6 *602:8 0.248578
13 *602:6 *961:B 1.4
14 *602:5 *602:6 0.124289
15 *602:4 *602:5 1.4
16 *602:3 *602:4 0.870021
17 *602:2 *602:3 1.4
18 *602:1 *602:2 0.124289
19 *962:B *602:1 1.4
*END

*D_NET *603 0.00431691

*CONN
*I *975:B I *C 81.055 39.005 *L 0.00163 *D NAND4BXL
*I *926:A0 I *C 70.035 33.785 *L 0.00271 *D OAI21X1
*I *993:Y O *C 61.625 34.075 *L 0 *D AND4X1

*CAP
1 *603:2 0.000910004
2 *603:3 0.000910004
3 *603:4 0.000345742
4 *603:5 0.000345742
5 *603:6 7.85515e-05
6 *603:7 0.000837883
7 *603:8 4.32178e-05
8 *603:9 0.000759331
9 *603:10 4.32178e-05
10 *603:11 2.16089e-05
11 *603:13 2.16089e-05

*RES
1 *603:13 *993:Y 1.4
2 *603:11 *603:13 0.124283
3 *603:10 *926:A0 1.4
4 *603:9 *603:11 1.4
5 *603:8 *603:10 0.248567
6 *603:7 *603:9 3.60437
7 *603:7 *603:8 1.4
8 *603:6 *603:7 0.372866
9 *603:5 *603:6 1.4
10 *603:4 *603:5 1.98853
11 *603:3 *603:4 1.4
12 *603:2 *603:3 4.35011
13 *603:1 *603:2 1.4
14 *975:B *603:1 1.4
*END

*D_NET *604 0.00216453

*CONN
*I *976:A I *C 72.065 93.815 *L 0.00181 *D AND2XL
*I *990:Y O *C 70.905 104.255 *L 0 *D NOR2XL
*I *960:A I *C 69.745 94.395 *L 0.00377 *D ADDHX1

*CAP
1 *604:2 0.000105019
2 *604:3 0.000105019
3 *604:4 4.84572e-05
4 *604:5 0.000872229
5 *604:6 0.000823772
6 *604:7 0.000105019
7 *604:9 0.000105019

*RES
1 *604:10 *960:A 1.4
2 *604:9 *604:10 1.4
3 *604:7 *604:9 0.497155
4 *604:6 *990:Y 1.4
5 *604:5 *604:7 1.4
6 *604:5 *604:6 4.22582
7 *604:4 *604:5 0.248577
8 *604:3 *604:4 1.4
9 *604:2 *604:3 0.497155
10 *604:1 *604:2 1.4
11 *976:A *604:1 1.4
*END

*D_NET *605 0.00258798

*CONN
*I *973:A I *C 23.345 97.005 *L 0.00175 *D OR2XL
*I *972:A I *C 25.085 91.785 *L 0.00183 *D CLKXOR2X1
*I *971:A0 I *C 26.245 96.425 *L 0.00271 *D OAI21X1
*I *989:Y O *C 22.765 84.245 *L 0 *D NOR3X1

*CAP
1 *605:2 0.000122284
2 *605:3 0.000122284
3 *605:4 4.20444e-05
4 *605:5 0.0003784
5 *605:6 8.36845e-05
6 *605:7 0.000840888
7 *605:8 8.36845e-05
8 *605:10 0.000504533
9 *605:12 0.000163046
10 *605:14 0.000163046
11 *605:15 4.20444e-05
12 *605:16 4.20444e-05

*RES
1 *605:16 *989:Y 1.4
2 *605:15 *605:16 0.248565
3 *605:14 *605:15 1.4
4 *605:12 *605:14 0.994265
5 *605:11 *971:A0 1.4
6 *605:10 *605:12 1.4
7 *605:8 *605:11 1.4
8 *605:7 *605:10 2.98278
9 *605:7 *972:A 1.4
10 *605:6 *605:8 0.497132
11 *605:5 *605:7 1.98852
12 *605:5 *605:6 1.4
13 *605:4 *605:5 0.248565
14 *605:3 *605:4 1.4
15 *605:2 *605:3 0.745699
16 *605:1 *605:2 1.4
17 *973:A *605:1 1.4
*END

*D_NET *606 0.00199101

*CONN
*I *943:A I *C 84.825 39.005 *L 0.00162 *D NOR2XL
*I *975:AN I *C 80.475 39.295 *L 0.0018 *D NAND4BXL
*I *938:A0 I *C 88.305 39.005 *L 0.00155 *D AO21X1
*I *988:Y O *C 88.595 42.485 *L 0 *D NAND4XL

*CAP
1 *606:1 2.16395e-05
2 *606:2 2.16395e-05
3 *606:3 0.000688686
4 *606:4 0.00033159
5 *606:5 0.000382604
6 *606:6 2.55069e-05
7 *606:7 2.16395e-05
8 *606:9 0.000238034
9 *606:10 2.16395e-05
10 *606:12 0.000238034

*RES
1 *606:12 *988:Y 1.4
2 *606:10 *938:A0 1.4
3 *606:9 *606:12 1.36718
4 *606:8 *975:AN 1.4
5 *606:7 *606:10 0.124289
6 *606:6 *606:9 1.4
7 *606:5 *606:8 1.4
8 *606:4 *606:7 1.4
9 *606:4 *606:6 0.124289
10 *606:3 *606:5 1.86433
11 *606:3 *606:4 1.49146
12 *606:2 *606:3 1.4
13 *606:1 *606:2 0.124289
14 *943:A *606:1 1.4
*END

*D_NET *607 0.00200418

*CONN
*I *978:AN I *C 99.615 86.275 *L 0.00174 *D NAND2BXL
*I *933:A I *C 100.195 83.955 *L 0.00162 *D NOR2XL
*I *931:A0 I *C 100.195 80.765 *L 0.00155 *D AO21X1
*I *987:Y O *C 97.295 78.155 *L 0 *D NAND3X1

*CAP
1 *607:2 5.13916e-05
2 *607:3 5.13916e-05
3 *607:4 0.00019712
4 *607:5 0.000468161
5 *607:7 0.000492211
6 *607:9 0.00022117
7 *607:10 0.000261369
8 *607:11 0.000261369

*RES
1 *607:12 *987:Y 1.4
2 *607:11 *607:12 1.4
3 *607:10 *607:11 1.24289
4 *607:9 *607:10 1.4
5 *607:7 *607:9 1.1186
6 *607:7 *931:A0 1.4
7 *607:5 *607:7 1.36718
8 *607:5 *933:A 1.4
9 *607:4 *607:5 0.99431
10 *607:3 *607:4 1.4
11 *607:2 *607:3 0.248566
12 *607:1 *607:2 1.4
13 *978:AN *607:1 1.4
*END

*D_NET *608 0.002047

*CONN
*I *971:B0 I *C 27.115 96.425 *L 0.0028 *D OAI21X1
*I *986:Y O *C 27.115 105.415 *L 0 *D NOR2X1
*I *970:A0 I *C 24.505 99.615 *L 0.00271 *D OAI21X1

*CAP
1 *608:2 2.4704e-05
2 *608:3 2.4704e-05
3 *608:4 0.000249191
4 *608:5 0.000249191
5 *608:6 2.4704e-05
6 *608:7 0.000223262
7 *608:8 0.000505321
8 *608:9 0.000198558
9 *608:10 0.000505321
10 *608:11 2.10222e-05
11 *608:13 2.10222e-05

*RES
1 *608:13 *970:A0 1.4
2 *608:11 *608:13 0.124283
3 *608:10 *986:Y 1.4
4 *608:9 *608:11 1.4
5 *608:8 *608:10 2.61004
6 *608:7 *608:9 1.11855
7 *608:7 *608:8 1.4
8 *608:6 *608:7 0.124283
9 *608:5 *608:6 1.4
10 *608:4 *608:5 1.24289
11 *608:3 *608:4 1.4
12 *608:2 *608:3 0.124283
13 *608:1 *608:2 1.4
14 *971:B0 *608:1 1.4
*END

*D_NET *609 0.0017607

*CONN
*I *927:A0 I *C 97.585 80.765 *L 0.00271 *D OAI21X1
*I *985:Y O *C 101.935 85.695 *L 0 *D NOR3BX1
*I *978:B I *C 99.035 85.985 *L 0.00168 *D NAND2BXL

*CAP
1 *609:2 2.56958e-05
2 *609:3 2.56958e-05
3 *609:4 0.000418881
4 *609:5 0.000418881
5 *609:6 0.000154175
6 *609:7 0.000411132
7 *609:8 0.000256958
8 *609:9 2.46401e-05
9 *609:11 2.46401e-05

*RES
1 *609:11 *978:B 1.4
2 *609:10 *985:Y 1.4
3 *609:9 *609:11 0.124289
4 *609:8 *609:10 1.4
5 *609:7 *609:9 1.4
6 *609:7 *609:8 1.24283
7 *609:6 *609:7 0.745697
8 *609:5 *609:6 1.4
9 *609:4 *609:5 2.11291
10 *609:3 *609:4 1.4
11 *609:2 *609:3 0.124283
12 *609:1 *609:2 1.4
13 *927:A0 *609:1 1.4
*END

*D_NET *610 0.000276951

*CONN
*I *977:A I *C 50.895 104.545 *L 0.00157 *D NAND2XL
*I *981:Y O *C 50.895 106.575 *L 0 *D AOI211X1

*CAP
1 *610:1 0.000138475
2 *610:2 0.000138475

*RES
1 *610:2 *981:Y 1.4
2 *610:1 *610:2 0.869982
3 *977:A *610:1 1.4
*END

*D_NET *611 0.00309282

*CONN
*I *980:A I *C 99.905 91.205 *L 0.00273 *D CLKINVX1
*I *966:A I *C 99.905 89.175 *L 0.00171 *D OR4X1
*I *984:Y O *C 109.475 96.135 *L 0 *D NAND4XL

*CAP
1 *611:1 0.00017248
2 *611:2 0.00017248
3 *611:3 2.56958e-05
4 *611:5 2.56958e-05
5 *611:6 0.000591361
6 *611:7 0.000591361
7 *611:8 0.000756872
8 *611:9 0.000756872

*RES
1 *611:10 *984:Y 1.4
2 *611:9 *611:10 1.4
3 *611:8 *611:9 3.97715
4 *611:7 *611:8 1.4
5 *611:6 *611:7 2.98293
6 *611:5 *611:6 1.4
7 *611:3 *611:5 0.124283
8 *611:2 *966:A 1.4
9 *611:2 *611:3 1.4
10 *611:1 *611:2 0.870021
11 *980:A *611:1 1.4
*END

*D_NET *612 0.00117871

*CONN
*I *953:A I *C 103.965 88.885 *L 0.00157 *D NAND2XL
*I *945:A0 I *C 103.385 91.205 *L 0.00271 *D OAI21X1
*I *980:Y O *C 99.5325 91.205 *L 0 *D CLKINVX1

*CAP
1 *612:1 0.00019712
2 *612:2 0.00019712
3 *612:3 5.13916e-05
4 *612:4 0.000385437
5 *612:6 0.000334045
6 *612:8 6.79726e-06
7 *612:9 6.79726e-06

*RES
1 *612:9 *980:Y 1.4
2 *612:8 *612:9 0.0342866
3 *612:6 *612:8 1.4
4 *612:5 *945:A0 1.4
5 *612:4 *612:6 1.61568
6 *612:4 *612:5 1.4
7 *612:3 *612:4 0.248566
8 *612:2 *612:3 1.4
9 *612:1 *612:2 0.99431
10 *953:A *612:1 1.4
*END

*D_NET *613 0.00381292

*CONN
*I *966:B I *C 99.035 88.595 *L 0.00168 *D OR4X1
*I *963:A0 I *C 97.295 96.425 *L 0.00155 *D AO21X1
*I *983:Y O *C 97.295 106.575 *L 0 *D NAND4XL
*I *965:A I *C 94.685 96.425 *L 0.00162 *D NOR2XL

*CAP
1 *613:2 5.13916e-05
2 *613:3 5.13916e-05
3 *613:4 0.000616001
4 *613:5 0.000616001
5 *613:6 0.000102783
6 *613:7 0.000102783
7 *613:8 2.46401e-05
8 *613:9 4.92801e-05
9 *613:10 0.00085574
10 *613:11 0.000231262
11 *613:12 0.0008311
12 *613:14 0.000231262
13 *613:16 2.46401e-05
14 *613:17 2.46401e-05

*RES
1 *613:17 *965:A 1.4
2 *613:16 *613:17 0.124289
3 *613:14 *613:16 1.4
4 *613:12 *983:Y 1.4
5 *613:11 *613:14 1.11855
6 *613:10 *963:A0 1.4
7 *613:10 *613:12 4.35011
8 *613:9 *613:11 1.4
9 *613:9 *613:10 0.124289
10 *613:8 *613:9 0.124289
11 *613:7 *613:8 1.4
12 *613:6 *613:7 0.497131
13 *613:5 *613:6 1.4
14 *613:4 *613:5 3.10722
15 *613:3 *613:4 1.4
16 *613:2 *613:3 0.248566
17 *613:1 *613:2 1.4
18 *966:B *613:1 1.4
*END

*D_NET *614 0.0029076

*CONN
*I *976:B I *C 72.935 94.105 *L 0.00169 *D AND2XL
*I *955:A0 I *C 69.745 91.205 *L 0.00271 *D OAI21X1
*I *982:Y O *C 69.455 80.475 *L 0 *D NOR3X1

*CAP
1 *614:2 0.000288803
2 *614:3 0.000288803
3 *614:4 0.000242286
4 *614:5 0.00113874
5 *614:7 0.000896457
6 *614:8 2.62548e-05
7 *614:9 2.62548e-05

*RES
1 *614:10 *982:Y 1.4
2 *614:9 *614:10 1.4
3 *614:8 *614:9 0.124289
4 *614:7 *614:8 1.4
5 *614:5 *614:7 4.59868
6 *614:5 *955:A0 1.4
7 *614:4 *614:5 1.24289
8 *614:3 *614:4 1.4
9 *614:2 *614:3 1.36718
10 *614:1 *614:2 1.4
11 *976:B *614:1 1.4
*END

*D_NET *615 0.000747647

*CONN
*I *966:C I *C 98.745 88.885 *L 0.00167 *D OR4X1
*I *978:Y O *C 98.745 85.695 *L 0 *D NAND2BXL

*CAP
1 *615:2 5.13916e-05
2 *615:3 5.13916e-05
3 *615:4 0.000271041
4 *615:5 0.000271041
5 *615:6 5.13916e-05
6 *615:7 5.13916e-05

*RES
1 *615:8 *978:Y 1.4
2 *615:7 *615:8 1.4
3 *615:6 *615:7 0.248566
4 *615:5 *615:6 1.4
5 *615:4 *615:5 1.36718
6 *615:3 *615:4 1.4
7 *615:2 *615:3 0.248566
8 *615:1 *615:2 1.4
9 *966:C *615:1 1.4
*END

*D_NET *616 0.00812157

*CONN
*I *973:B I *C 22.475 96.715 *L 0.00169 *D OR2XL
*I *971:A1 I *C 26.535 96.715 *L 0.00274 *D OAI21X1
*I *972:B I *C 26.535 91.495 *L 0.00363 *D CLKXOR2X1
*I *974:B0 I *C 23.055 57.855 *L 0.00175 *D AO21X1
*I *979:Y O *C 26.825 56.985 *L 0 *D NOR2X2

*CAP
1 *616:2 0.000291815
2 *616:3 0.000291815
3 *616:4 0.000448543
4 *616:6 0.003366
5 *616:8 0.00302012
6 *616:9 0.000253224
7 *616:10 0.000102656
8 *616:11 0.000253224
9 *616:12 2.43381e-05
10 *616:13 2.2747e-05
11 *616:14 2.43381e-05
12 *616:15 2.2747e-05

*RES
1 *616:16 *979:Y 1.4
2 *616:15 *974:B0 1.4
3 *616:14 *616:16 1.4
4 *616:13 *616:15 0.124284
5 *616:12 *616:14 0.124283
6 *616:11 *616:13 1.4
7 *616:10 *616:12 1.4
8 *616:9 *616:11 1.4914
9 *616:8 *616:10 0.497131
10 *616:8 *616:9 1.4
11 *616:6 *616:8 14.2928
12 *616:6 *972:B 1.4
13 *616:4 *616:6 2.2372
14 *616:4 *971:A1 1.4
15 *616:3 *616:4 1.4
16 *616:2 *616:3 1.73996
17 *616:1 *616:2 1.4
18 *973:B *616:1 1.4
*END

*D_NET *617 0.000436114

*CONN
*I *967:A I *C 71.485 96.425 *L 0.00267 *D NAND2X1
*I *976:Y O *C 71.485 93.815 *L 0 *D AND2XL

*CAP
1 *617:1 0.000218057
2 *617:2 0.000218057

*RES
1 *617:2 *976:Y 1.4
2 *617:1 *617:2 1.1186
3 *967:A *617:1 1.4
*END

*D_NET *618 0.00163664

*CONN
*I *969:A I *C 50.895 96.425 *L 0.00263 *D NOR2X1
*I *968:A0 I *C 50.895 99.615 *L 0.00155 *D AO21X1
*I *977:Y O *C 51.475 105.125 *L 0 *D NAND2XL

*CAP
1 *618:1 0.00027411
2 *618:2 0.000754512
3 *618:3 0.000480402
4 *618:5 4.4028e-05
5 *618:6 4.4028e-05
6 *618:7 1.97822e-05
7 *618:8 1.97822e-05

*RES
1 *618:8 *977:Y 1.4
2 *618:7 *618:8 0.124283
3 *618:6 *618:7 1.4
4 *618:5 *618:6 0.248578
5 *618:3 *618:5 1.4
6 *618:2 *968:A0 1.4
7 *618:2 *618:3 2.48576
8 *618:1 *618:2 1.36718
9 *969:A *618:1 1.4
*END

*D_NET *619 0.000636845

*CONN
*I *964:A I *C 80.475 36.685 *L 0.00173 *D OR2X1
*I *975:Y O *C 81.635 39.585 *L 0 *D NAND4BXL

*CAP
1 *619:2 5.10138e-05
2 *619:3 5.10138e-05
3 *619:4 0.000216395
4 *619:5 0.000216395
5 *619:6 5.10138e-05
6 *619:7 5.10138e-05

*RES
1 *619:8 *975:Y 1.4
2 *619:7 *619:8 1.4
3 *619:6 *619:7 0.248578
4 *619:5 *619:6 1.4
5 *619:4 *619:5 1.24289
6 *619:3 *619:4 1.4
7 *619:2 *619:3 0.248578
8 *619:1 *619:2 1.4
9 *964:A *619:1 1.4
*END

*D_NET *620 0.000584773

*CONN
*I *970:A1 I *C 24.795 99.325 *L 0.00274 *D OAI21X1
*I *973:Y O *C 23.925 96.135 *L 0 *D OR2XL

*CAP
1 *620:2 2.03807e-05
2 *620:3 2.03807e-05
3 *620:4 0.000231244
4 *620:5 0.000231244
5 *620:6 4.07614e-05
6 *620:7 4.07614e-05

*RES
1 *620:8 *973:Y 1.4
2 *620:7 *620:8 1.4
3 *620:6 *620:7 0.248566
4 *620:5 *620:6 1.4
5 *620:4 *620:5 1.36711
6 *620:3 *620:4 1.4
7 *620:2 *620:3 0.124283
8 *620:1 *620:2 1.4
9 *970:A1 *620:1 1.4
*END

*D_NET *621 0.0055849

*CONN
*I *968:A1 I *C 51.185 99.905 *L 0.00163 *D AO21X1
*I *969:B I *C 51.185 96.425 *L 0.0028 *D NOR2X1
*I *971:Y O *C 27.405 96.135 *L 0 *D OAI21X1
*I *970:B0 I *C 25.375 99.615 *L 0.0028 *D OAI21X1

*CAP
1 *621:2 2.4704e-05
2 *621:3 2.4704e-05
3 *621:4 0.000299029
4 *621:5 0.000299029
5 *621:6 2.4704e-05
6 *621:7 0.00205043
7 *621:9 0.00218785
8 *621:11 2.49191e-05
9 *621:12 0.00016212
10 *621:13 2.49191e-05
11 *621:14 0.000231244
12 *621:16 0.000231244

*RES
1 *621:16 *970:B0 1.4
2 *621:14 *621:16 1.36711
3 *621:13 *971:Y 1.4
4 *621:12 *621:14 1.4
5 *621:11 *621:13 0.124289
6 *621:9 *621:12 0.869981
7 *621:9 *621:11 1.4
8 *621:8 *969:B 1.4
9 *621:7 *621:9 10.1912
10 *621:7 *621:8 1.4
11 *621:6 *621:7 0.124283
12 *621:5 *621:6 1.4
13 *621:4 *621:5 1.49146
14 *621:3 *621:4 1.4
15 *621:2 *621:3 0.124283
16 *621:1 *621:2 1.4
17 *968:A1 *621:1 1.4
*END

*D_NET *622 0.0117794

*CONN
*I *964:B I *C 81.345 36.975 *L 0.00165 *D OR2X1
*I *961:AN I *C 81.345 41.905 *L 0.00174 *D NOR2BX1
*I *962:AN I *C 84.825 42.195 *L 0.00178 *D NAND2BX1
*I *927:B0 I *C 96.715 80.765 *L 0.0028 *D OAI21X1
*I *966:Y O *C 100.485 89.465 *L 0 *D OR4X1

*CAP
1 *622:1 0.000367871
2 *622:2 0.000367871
3 *622:3 0.000306083
4 *622:5 0.000306083
5 *622:6 2.16395e-05
6 *622:7 0.00303968
7 *622:8 0.00301804
8 *622:10 0.00105353
9 *622:11 0.00105353
10 *622:12 4.92801e-05
11 *622:13 0.000788482
12 *622:14 0.000739202
13 *622:16 0.000334045
14 *622:17 0.000334045

*RES
1 *622:18 *966:Y 1.4
2 *622:17 *622:18 1.4
3 *622:16 *622:17 1.61568
4 *622:14 *622:16 1.4
5 *622:13 *927:B0 1.4
6 *622:13 *622:14 3.72866
7 *622:12 *622:13 0.248577
8 *622:11 *622:12 1.4
9 *622:10 *622:11 5.0956
10 *622:8 *622:10 1.4
11 *622:7 *962:AN 1.4
12 *622:7 *622:8 16.2818
13 *622:6 *622:7 0.124289
14 *622:5 *622:6 1.4
15 *622:3 *622:5 1.49146
16 *622:2 *961:AN 1.4
17 *622:2 *622:3 1.4
18 *622:1 *622:2 2.11291
19 *964:B *622:1 1.4
*END

*D_NET *623 0.00341861

*CONN
*I *953:B I *C 103.385 88.885 *L 0.00167 *D NAND2XL
*I *945:A1 I *C 103.095 91.495 *L 0.00274 *D OAI21X1
*I *963:B0 I *C 98.165 96.425 *L 0.00175 *D AO21X1
*I *965:Y O *C 94.105 97.005 *L 0 *D NOR2XL

*CAP
1 *623:1 2.46401e-05
2 *623:2 2.46401e-05
3 *623:3 2.56958e-05
4 *623:4 5.13916e-05
5 *623:5 0.00019712
6 *623:6 2.56958e-05
7 *623:7 0.00019712
8 *623:8 0.00022176
9 *623:10 0.00022176
10 *623:11 0.000205566
11 *623:12 0.000205566
12 *623:13 0.000394241
13 *623:14 0.000394241
14 *623:15 0.000205566
15 *623:16 0.000565307
16 *623:18 0.000359741
17 *623:20 4.92801e-05
18 *623:21 4.92801e-05

*RES
1 *623:21 *965:Y 1.4
2 *623:20 *623:21 0.248577
3 *623:18 *623:20 1.4
4 *623:17 *963:B0 1.4
5 *623:16 *623:18 1.73996
6 *623:16 *623:17 1.4
7 *623:15 *623:16 0.994263
8 *623:14 *623:15 1.4
9 *623:13 *623:14 1.98862
10 *623:12 *623:13 1.4
11 *623:11 *623:12 0.994263
12 *623:10 *623:11 1.4
13 *623:8 *623:10 1.1186
14 *623:7 *945:A1 1.4
15 *623:6 *623:8 1.4
16 *623:5 *623:7 0.99431
17 *623:4 *623:6 0.124283
18 *623:4 *623:5 1.4
19 *623:3 *623:4 0.124283
20 *623:2 *623:3 1.4
21 *623:1 *623:2 0.124289
22 *953:B *623:1 1.4
*END

*D_NET *624 0.00641449

*CONN
*I *956:B I *C 48.285 32.045 *L 0.00284 *D NAND2X1
*I *958:C I *C 51.185 33.785 *L 0.00285 *D NAND3X1
*I *926:B0 I *C 69.165 33.785 *L 0.0028 *D OAI21X1
*I *964:Y O *C 79.895 36.395 *L 0 *D OR2X1

*CAP
1 *624:1 2.50744e-05
2 *624:2 2.50744e-05
3 *624:3 0.000252156
4 *624:4 0.000252156
5 *624:5 0.000125372
6 *624:6 0.000150446
7 *624:7 2.50744e-05
8 *624:9 0.00162001
9 *624:10 0.00162001
10 *624:11 0.00019448
11 *624:12 0.000172871
12 *624:13 2.16089e-05
13 *624:14 0.000965079
14 *624:16 0.000965079

*RES
1 *624:17 *964:Y 1.4
2 *624:16 *624:17 1.4
3 *624:14 *624:16 4.59868
4 *624:13 *926:B0 1.4
5 *624:12 *624:14 1.4
6 *624:11 *624:13 0.124283
7 *624:11 *624:12 0.994267
8 *624:10 *624:11 1.4
9 *624:9 *624:10 7.70588
10 *624:7 *624:9 1.4
11 *624:6 *958:C 1.4
12 *624:6 *624:7 0.124289
13 *624:5 *624:6 0.621443
14 *624:4 *624:5 1.4
15 *624:3 *624:4 1.24283
16 *624:2 *624:3 1.4
17 *624:1 *624:2 0.124289
18 *956:B *624:1 1.4
*END

*D_NET *625 0.000406473

*CONN
*I *957:B I *C 81.635 44.225 *L 0.0028 *D NOR2BX1
*I *961:Y O *C 82.205 42.195 *L 0 *D NOR2BX1

*CAP
1 *625:2 2.55069e-05
2 *625:3 2.55069e-05
3 *625:4 0.000151476
4 *625:5 0.000151476
5 *625:6 2.55069e-05
6 *625:7 2.55069e-05
7 *625:8 7.46189e-07
8 *625:9 7.46189e-07

*RES
1 *625:9 *961:Y 1.4
2 *625:8 *625:9 0.00428582
3 *625:7 *625:8 1.4
4 *625:6 *625:7 0.124289
5 *625:5 *625:6 1.4
6 *625:4 *625:5 0.870021
7 *625:3 *625:4 1.4
8 *625:2 *625:3 0.124289
9 *625:1 *625:2 1.4
10 *957:B *625:1 1.4
*END

*D_NET *626 0.000593643

*CONN
*I *955:A1 I *C 69.455 91.495 *L 0.00274 *D OAI21X1
*I *960:CO O *C 70.325 94.105 *L 0 *D ADDHX1

*CAP
1 *626:1 0.000218057
2 *626:2 0.000218057
3 *626:3 7.87643e-05
4 *626:4 7.87643e-05

*RES
1 *626:5 *960:CO 1.4
2 *626:4 *626:5 1.4
3 *626:3 *626:4 0.372866
4 *626:2 *626:3 1.4
5 *626:1 *626:2 1.1186
6 *955:A1 *626:1 1.4
*END

*D_NET *627 0.00421699

*CONN
*I *959:A I *C 65.105 99.615 *L 0.00273 *D CLKINVX1
*I *1273:A0 I *C 63.655 96.715 *L 0.00164 *D OAI21XL
*I *1266:A0 I *C 66.555 96.715 *L 0.00164 *D OAI21XL
*I *1298:A0 I *C 47.995 96.715 *L 0.00267 *D OAI211X1
*I *960:S O *C 66.05 94.61 *L 0 *D ADDHX1

*CAP
1 *627:2 2.62548e-05
2 *627:3 2.62548e-05
3 *627:4 0.000242286
4 *627:5 0.000242286
5 *627:6 0.000210038
6 *627:7 0.000105019
7 *627:8 0.0015528
8 *627:9 5.25096e-05
9 *627:10 0.000175866
10 *627:12 0.00139527
11 *627:14 0.000182132
12 *627:18 6.26601e-06

*RES
1 *627:18 *960:S 1.4
2 *627:16 *1298:A0 1.4
3 *627:14 *627:18 0.0321436
4 *627:13 *1266:A0 1.4
5 *627:12 *627:16 1.4
6 *627:11 *1273:A0 1.4
7 *627:10 *627:14 0.902165
8 *627:9 *627:13 1.4
9 *627:8 *627:12 6.71151
10 *627:8 *627:11 1.4
11 *627:7 *627:10 1.4
12 *627:7 *627:9 0.248577
13 *627:6 *627:8 0.745732
14 *627:6 *627:7 0.248577
15 *627:5 *627:6 1.4
16 *627:4 *627:5 1.24289
17 *627:3 *627:4 1.4
18 *627:2 *627:3 0.124289
19 *627:1 *627:2 1.4
20 *959:A *627:1 1.4
*END

*D_NET *628 0.00203116

*CONN
*I *938:A1 I *C 88.595 38.715 *L 0.00163 *D AO21X1
*I *943:B I *C 85.115 39.295 *L 0.00171 *D NOR2XL
*I *962:Y O *C 83.955 42.775 *L 0 *D NAND2BX1
*I *957:AN I *C 82.215 44.515 *L 0.00174 *D NOR2BX1

*CAP
1 *628:1 2.16395e-05
2 *628:2 2.16395e-05
3 *628:3 0.000306083
4 *628:4 0.000357097
5 *628:5 2.16395e-05
6 *628:6 5.10138e-05
7 *628:7 2.16395e-05
8 *628:8 0.000108197
9 *628:10 0.000108197
10 *628:11 5.10138e-05
11 *628:12 5.10138e-05
12 *628:13 0.000173116
13 *628:14 0.000259674
14 *628:15 8.65579e-05
15 *628:17 0.000153041
16 *628:18 0.000153041
17 *628:19 4.32789e-05
18 *628:20 4.32789e-05

*RES
1 *628:20 *957:AN 1.4
2 *628:19 *628:20 0.248578
3 *628:18 *628:19 1.4
4 *628:17 *628:18 0.745732
5 *628:15 *628:17 1.4
6 *628:14 *962:Y 1.4
7 *628:14 *628:15 0.497155
8 *628:13 *628:14 0.99431
9 *628:12 *628:13 1.4
10 *628:11 *628:12 0.248578
11 *628:10 *628:11 1.4
12 *628:8 *628:10 0.621444
13 *628:7 *943:B 1.4
14 *628:6 *628:8 1.4
15 *628:5 *628:7 0.124289
16 *628:4 *628:6 0.248578
17 *628:4 *628:5 1.4
18 *628:3 *628:4 1.49146
19 *628:2 *628:3 1.4
20 *628:1 *628:2 0.124289
21 *938:A1 *628:1 1.4
*END

*D_NET *629 0.0041728

*CONN
*I *1218:C I *C 40.165 39.005 *L 0.00291 *D NOR3BX1
*I *1216:AN I *C 43.355 39.005 *L 0.00178 *D NAND2BX1
*I *952:B I *C 43.645 28.855 *L 0.00171 *D NOR2XL
*I *954:B I *C 50.025 36.975 *L 0.00165 *D OR2X1
*I *958:Y O *C 50.895 34.365 *L 0 *D NAND3X1

*CAP
1 *629:1 2.50744e-05
2 *629:2 2.50744e-05
3 *629:3 0.000277372
4 *629:4 0.000277372
5 *629:5 2.50744e-05
6 *629:6 0.000275818
7 *629:8 0.000250744
8 *629:9 2.52156e-05
9 *629:10 0.000579959
10 *629:11 0.000554744
11 *629:12 0.000626859
12 *629:13 0.000225669
13 *629:14 0.000626859
14 *629:15 7.52231e-05
15 *629:16 0.000150446
16 *629:19 7.56469e-05
17 *629:20 7.56469e-05

*RES
1 *629:21 *958:Y 1.4
2 *629:20 *629:21 1.4
3 *629:19 *629:20 0.372849
4 *629:16 *629:19 1.4
5 *629:15 *954:B 1.4
6 *629:14 *952:B 1.4
7 *629:13 *629:16 0.745731
8 *629:13 *629:15 0.372866
9 *629:12 *629:14 3.10721
10 *629:11 *629:13 1.4
11 *629:10 *629:12 1.4
12 *629:10 *629:11 2.73422
13 *629:9 *629:10 0.124283
14 *629:8 *629:9 1.4
15 *629:6 *629:8 1.24289
16 *629:6 *1216:AN 1.4
17 *629:5 *629:6 0.124289
18 *629:4 *629:5 1.4
19 *629:3 *629:4 1.36711
20 *629:2 *629:3 1.4
21 *629:1 *629:2 0.124289
22 *1218:C *629:1 1.4
*END

*D_NET *630 0.00156054

*CONN
*I *925:D I *C 37.265 26.245 *L 0.00183 *D SDFFQX1
*I *952:Y O *C 43.355 29.145 *L 0 *D NOR2XL

*CAP
1 *630:1 0.000250744
2 *630:2 0.000250744
3 *630:3 0.000529528
4 *630:4 0.000529528

*RES
1 *630:5 *952:Y 1.4
2 *630:4 *630:5 1.4
3 *630:3 *630:4 2.60994
4 *630:2 *630:3 1.4
5 *630:1 *630:2 1.24289
6 *925:D *630:1 1.4
*END

*D_NET *631 0.00272669

*CONN
*I *948:B I *C 45.965 41.905 *L 0.00172 *D AND2X1
*I *946:C I *C 44.515 44.515 *L 0.00167 *D AND3X1
*I *947:C I *C 44.805 49.735 *L 0.00167 *D AND3X1
*I *951:Y O *C 46.1725 49.445 *L 0 *D CLKINVX1
*I *949:C I *C 44.805 52.345 *L 0.00167 *D AND3X1

*CAP
1 *631:1 0.000150446
2 *631:2 0.000150446
3 *631:3 0.000126078
4 *631:4 0.000176509
5 *631:5 7.52231e-05
6 *631:6 5.04313e-05
7 *631:7 7.52231e-05
8 *631:8 0.000501487
9 *631:10 0.000501487
10 *631:11 7.56469e-05
11 *631:12 0.000201725
12 *631:13 0.000126078
13 *631:14 2.50744e-05
14 *631:15 6.91706e-06
15 *631:16 0.000251038
16 *631:17 6.91706e-06
17 *631:18 0.000225964

*RES
1 *631:18 *949:C 1.4
2 *631:17 *951:Y 1.4
3 *631:16 *947:C 1.4
4 *631:16 *631:18 1.11859
5 *631:15 *631:17 0.0342865
6 *631:14 *631:16 0.124289
7 *631:13 *631:15 1.4
8 *631:12 *631:14 1.4
9 *631:12 *631:13 0.621414
10 *631:11 *631:12 0.372849
11 *631:10 *631:11 1.4
12 *631:8 *631:10 2.48577
13 *631:7 *946:C 1.4
14 *631:6 *631:8 1.4
15 *631:5 *631:7 0.372866
16 *631:4 *631:6 0.248566
17 *631:4 *631:5 1.4
18 *631:3 *631:4 0.621414
19 *631:2 *631:3 1.4
20 *631:1 *631:2 0.745731
21 *948:B *631:1 1.4
*END

*D_NET *632 0.00315532

*CONN
*I *931:A1 I *C 100.485 80.475 *L 0.00163 *D AO21X1
*I *933:B I *C 99.905 83.665 *L 0.00171 *D NOR2XL
*I *953:Y O *C 103.385 89.465 *L 0 *D NAND2XL
*I *945:B0 I *C 102.515 91.205 *L 0.0028 *D OAI21X1

*CAP
1 *632:2 0.00017987
2 *632:3 0.00017987
3 *632:4 0.000320321
4 *632:5 0.000320321
5 *632:6 0.000128479
6 *632:7 0.000205566
7 *632:8 7.70873e-05
8 *632:9 4.92801e-05
9 *632:10 0.000443521
10 *632:11 4.92801e-05
11 *632:12 0.000443521
12 *632:14 0.000154175
13 *632:15 0.000231262
14 *632:16 7.70873e-05
15 *632:17 0.00014784
16 *632:19 0.00014784

*RES
1 *632:19 *945:B0 1.4
2 *632:18 *953:Y 1.4
3 *632:17 *632:19 0.745732
4 *632:16 *632:18 1.4
5 *632:15 *632:17 1.4
6 *632:15 *632:16 0.372849
7 *632:14 *632:15 0.745697
8 *632:12 *632:14 1.4
9 *632:11 *933:B 1.4
10 *632:10 *632:12 2.2372
11 *632:9 *632:11 0.248577
12 *632:8 *632:10 1.4
13 *632:7 *632:9 1.4
14 *632:7 *632:8 0.372849
15 *632:6 *632:7 0.621414
16 *632:5 *632:6 1.4
17 *632:4 *632:5 1.61575
18 *632:3 *632:4 1.4
19 *632:2 *632:3 0.86998
20 *632:1 *632:2 1.4
21 *931:A1 *632:1 1.4
*END

*D_NET *633 0.0028446

*CONN
*I *939:A I *C 50.025 65.105 *L 0.00273 *D INVX1
*I *937:B I *C 49.155 52.345 *L 0.00172 *D AND2X1
*I *944:Y O *C 46.835 52.055 *L 0 *D NOR2XL

*CAP
1 *633:1 0.00112921
2 *633:2 0.00112921
3 *633:3 7.30143e-05
4 *633:4 0.000267719
5 *633:6 0.000194705
6 *633:8 2.53691e-05
7 *633:9 2.53691e-05

*RES
1 *633:9 *944:Y 1.4
2 *633:8 *633:9 0.124286
3 *633:6 *633:8 1.4
4 *633:5 *937:B 1.4
5 *633:4 *633:6 0.994261
6 *633:4 *633:5 1.4
7 *633:3 *633:4 0.372848
8 *633:2 *633:3 1.4
9 *633:1 *633:2 5.46844
10 *939:A *633:1 1.4
*END

*D_NET *634 0.00381419

*CONN
*I *934:B I *C 51.185 83.955 *L 0.00165 *D OR2X1
*I *935:B I *C 49.445 80.765 *L 0.00165 *D OR2X1
*I *936:B I *C 49.155 78.735 *L 0.00165 *D OR2X1
*I *939:Y O *C 50.3975 65.105 *L 0 *D INVX1

*CAP
1 *634:1 0.000149514
2 *634:2 0.000149514
3 *634:3 0.000148224
4 *634:4 0.000148224
5 *634:5 0.000124595
6 *634:6 0.000299029
7 *634:8 0.00137952
8 *634:9 2.4704e-05
9 *634:10 0.00120509
10 *634:11 2.4704e-05
11 *634:12 7.30143e-05
12 *634:14 7.30143e-05
13 *634:16 7.52219e-06
14 *634:17 7.52219e-06

*RES
1 *634:17 *939:Y 1.4
2 *634:16 *634:17 0.0364277
3 *634:14 *634:16 1.4
4 *634:13 *936:B 1.4
5 *634:12 *634:14 0.372848
6 *634:11 *634:13 1.4
7 *634:10 *634:12 1.4
8 *634:9 *634:11 0.124283
9 *634:8 *634:10 5.84129
10 *634:8 *634:9 1.4
11 *634:6 *634:8 0.870021
12 *634:6 *935:B 1.4
13 *634:5 *634:6 0.621444
14 *634:4 *634:5 1.4
15 *634:3 *634:4 0.745697
16 *634:2 *634:3 1.4
17 *634:1 *634:2 0.745732
18 *934:B *634:1 1.4
*END

*D_NET *635 0.00183024

*CONN
*I *932:B I *C 83.665 36.685 *L 0.00167 *D NAND2XL
*I *929:B I *C 86.565 36.685 *L 0.00171 *D NOR2XL
*I *943:Y O *C 85.405 39.585 *L 0 *D NOR2XL
*I *938:B0 I *C 89.175 39.005 *L 0.00175 *D AO21X1

*CAP
1 *635:1 2.16395e-05
2 *635:2 2.16395e-05
3 *635:3 0.000255069
4 *635:4 0.000280576
5 *635:5 2.55069e-05
6 *635:6 2.16395e-05
7 *635:7 0.000173116
8 *635:8 2.16395e-05
9 *635:9 0.000238034
10 *635:11 6.49184e-05
11 *635:12 0.000204055
12 *635:13 0.000127535
13 *635:14 0.000204055
14 *635:15 0.000127535
15 *635:16 2.16395e-05
16 *635:18 2.16395e-05

*RES
1 *635:18 *938:B0 1.4
2 *635:17 *943:Y 1.4
3 *635:16 *635:18 0.124289
4 *635:15 *635:17 1.4
5 *635:14 *635:16 1.4
6 *635:13 *635:15 0.621444
7 *635:12 *635:14 0.99431
8 *635:11 *635:13 1.4
9 *635:9 *635:12 1.4
10 *635:9 *635:11 0.372866
11 *635:8 *929:B 1.4
12 *635:7 *635:9 0.99431
13 *635:6 *635:8 0.124289
14 *635:5 *635:7 1.4
15 *635:4 *635:6 1.4
16 *635:4 *635:5 0.124289
17 *635:3 *635:4 1.24289
18 *635:2 *635:3 1.4
19 *635:1 *635:2 0.124289
20 *932:B *635:1 1.4
*END

*D_NET *636 0.00156569

*CONN
*I *931:B0 I *C 101.065 80.765 *L 0.00175 *D AO21X1
*I *927:A1 I *C 97.295 81.055 *L 0.00274 *D OAI21X1
*I *933:Y O *C 99.615 83.375 *L 0 *D NOR2XL

*CAP
1 *636:1 4.92801e-05
2 *636:2 4.92801e-05
3 *636:3 0.000256958
4 *636:4 0.000256958
5 *636:5 7.39202e-05
6 *636:6 0.000271041
7 *636:7 0.00019712
8 *636:8 7.70873e-05
9 *636:9 0.000128479
10 *636:10 7.70873e-05
11 *636:11 0.000128479

*RES
1 *636:13 *933:Y 1.4
2 *636:12 *927:A1 1.4
3 *636:11 *636:13 1.4
4 *636:10 *636:12 1.4
5 *636:9 *636:11 0.621414
6 *636:8 *636:10 0.372849
7 *636:7 *636:9 1.4
8 *636:6 *636:8 1.4
9 *636:6 *636:7 0.99431
10 *636:5 *636:6 0.372866
11 *636:4 *636:5 1.4
12 *636:3 *636:4 1.24283
13 *636:2 *636:3 1.4
14 *636:1 *636:2 0.248577
15 *931:B0 *636:1 1.4
*END

*D_NET *637 0.00101429

*CONN
*I *930:A I *C 81.625 34.0125 *L 0.00163 *D INVXL
*I *932:Y O *C 83.665 37.265 *L 0 *D NAND2XL
*I *928:B I *C 84.245 33.785 *L 0.00284 *D NAND2BX1

*CAP
1 *637:1 7.46189e-07
2 *637:2 1.79085e-05
3 *637:3 1.71623e-05
4 *637:4 0.000178548
5 *637:5 0.000229562
6 *637:6 0.000259674
7 *637:7 5.10138e-05
8 *637:8 0.000259674

*RES
1 *637:9 *928:B 1.4
2 *637:8 *932:Y 1.4
3 *637:7 *637:9 1.4
4 *637:6 *637:8 1.49146
5 *637:5 *637:7 0.248578
6 *637:5 *637:6 1.4
7 *637:4 *637:5 0.870021
8 *637:3 *637:4 1.4
9 *637:2 *637:3 0.0985738
10 *637:1 *637:2 0.00428582
11 *930:A *637:1 1.4
*END

*D_NET *638 0.00235192

*CONN
*I *926:A1 I *C 69.745 34.075 *L 0.00274 *D OAI21X1
*I *930:Y O *C 81.2625 34.075 *L 0 *D INVXL

*CAP
1 *638:1 6.48267e-05
2 *638:2 6.48267e-05
3 *638:3 0.00104025
4 *638:4 0.00104025
5 *638:5 6.49184e-05
6 *638:6 7.08879e-05
7 *638:7 5.96951e-06

*RES
1 *638:7 *930:Y 1.4
2 *638:6 *638:7 0.0342866
3 *638:5 *638:6 0.372866
4 *638:4 *638:5 1.4
5 *638:3 *638:4 4.97155
6 *638:2 *638:3 1.4
7 *638:1 *638:2 0.37285
8 *926:A1 *638:1 1.4
*END

*D_NET *639 0.000797621

*CONN
*I *928:AN I *C 85.115 33.785 *L 0.00178 *D NAND2BX1
*I *929:Y O *C 86.855 36.395 *L 0 *D NOR2XL

*CAP
1 *639:2 0.000178548
2 *639:3 0.000178548
3 *639:4 0.000194755
4 *639:5 0.000194755
5 *639:6 2.55069e-05
6 *639:7 2.55069e-05

*RES
1 *639:8 *929:Y 1.4
2 *639:7 *639:8 1.4
3 *639:6 *639:7 0.124289
4 *639:5 *639:6 1.4
5 *639:4 *639:5 1.1186
6 *639:3 *639:4 1.4
7 *639:2 *639:3 0.870021
8 *639:1 *639:2 1.4
9 *928:AN *639:1 1.4
*END

*D_NET *640 0.00299414

*CONN
*I *1265:A0 I *C 42.195 91.495 *L 0.00164 *D OAI21XL
*I *1268:A0 I *C 38.135 96.715 *L 0.00164 *D OAI21XL
*I *1279:A0 I *C 35.235 91.495 *L 0.00267 *D OAI211X1
*I *924:Y O *C 35.0275 96.425 *L 0 *D CLKINVX1

*CAP
1 *640:1 0.000373786
2 *640:2 0.000373786
3 *640:3 0.000345857
4 *640:4 0.000592897
5 *640:5 7.47572e-05
6 *640:6 0.000271744
7 *640:7 7.47572e-05
8 *640:8 0.000373786
9 *640:9 2.4704e-05
10 *640:11 0.000373786
11 *640:12 4.98381e-05
12 *640:14 5.7142e-05
13 *640:15 7.30386e-06

*RES
1 *640:15 *924:Y 1.4
2 *640:14 *640:15 0.0364295
3 *640:12 *640:14 0.248578
4 *640:11 *1279:A0 1.4
5 *640:9 *640:12 1.4
6 *640:8 *640:11 1.86433
7 *640:7 *1268:A0 1.4
8 *640:6 *640:9 0.124283
9 *640:6 *640:8 1.4
10 *640:5 *640:7 0.372866
11 *640:4 *640:6 1.24283
12 *640:4 *640:5 1.4
13 *640:3 *640:4 1.73996
14 *640:2 *640:3 1.4
15 *640:1 *640:2 1.86433
16 *1265:A0 *640:1 1.4
*END

*D_NET *641 0.00394697

*CONN
*I *1274:A0 I *C 90.625 99.325 *L 0.00164 *D OAI21XL
*I *1267:A0 I *C 90.915 101.935 *L 0.00164 *D OAI21XL
*I *920:Y O *C 97.6675 101.645 *L 0 *D CLKINVX1
*I *1272:A0 I *C 101.645 96.715 *L 0.00164 *D OAI21XL

*CAP
1 *641:1 0.000295681
2 *641:2 0.000295681
3 *641:3 2.56958e-05
4 *641:4 0.000513916
5 *641:5 0.00048822
6 *641:6 7.39202e-05
7 *641:7 9.85602e-05
8 *641:8 7.39202e-05
9 *641:9 0.000492801
10 *641:11 0.000102783
11 *641:12 0.000394241
12 *641:13 0.000102783
13 *641:14 0.000462524
14 *641:15 7.22208e-06
15 *641:16 0.000462524
16 *641:17 7.22208e-06
17 *641:18 2.46401e-05
18 *641:20 2.46401e-05

*RES
1 *641:20 *1272:A0 1.4
2 *641:18 *641:20 0.124289
3 *641:17 *920:Y 1.4
4 *641:16 *641:18 1.4
5 *641:15 *641:17 0.0364295
6 *641:14 *641:16 2.23709
7 *641:13 *641:15 1.4
8 *641:12 *641:14 1.4
9 *641:11 *641:13 0.497131
10 *641:9 *641:12 1.98862
11 *641:9 *641:11 1.4
12 *641:8 *1267:A0 1.4
13 *641:7 *641:9 0.497155
14 *641:6 *641:8 0.372866
15 *641:5 *641:7 1.4
16 *641:4 *641:6 1.4
17 *641:4 *641:5 2.36137
18 *641:3 *641:4 0.124283
19 *641:2 *641:3 1.4
20 *641:1 *641:2 1.49146
21 *1274:A0 *641:1 1.4
*END

*D_NET *642 0.00291838

*CONN
*I *1276:A0 I *C 88.305 62.785 *L 0.00164 *D OAI21XL
*I *1269:A0 I *C 91.205 62.785 *L 0.00164 *D OAI21XL
*I *919:Y O *C 97.9575 63.075 *L 0 *D CLKINVX1
*I *1275:A0 I *C 100.775 65.395 *L 0.00164 *D OAI21XL

*CAP
1 *642:1 4.69183e-05
2 *642:2 4.69183e-05
3 *642:3 0.000261369
4 *642:4 0.000862516
5 *642:5 0.000601148
6 *642:6 4.69183e-05
7 *642:7 0.000211132
8 *642:8 4.69183e-05
9 *642:9 0.000187673
10 *642:10 3.03351e-05
11 *642:12 0.000261369
12 *642:13 6.87595e-06
13 *642:14 0.000261369
14 *642:16 2.34591e-05
15 *642:17 2.34591e-05

*RES
1 *642:17 *1275:A0 1.4
2 *642:16 *642:17 0.124288
3 *642:14 *642:16 1.4
4 *642:13 *919:Y 1.4
5 *642:12 *642:14 1.24289
6 *642:10 *642:13 0.0364293
7 *642:9 *642:12 1.4
8 *642:8 *1269:A0 1.4
9 *642:7 *642:10 0.124288
10 *642:7 *642:9 0.994305
11 *642:6 *642:8 0.248576
12 *642:5 *642:7 1.4
13 *642:4 *642:6 1.4
14 *642:4 *642:5 2.85864
15 *642:3 *642:4 1.24289
16 *642:2 *642:3 1.4
17 *642:1 *642:2 0.248576
18 *1276:A0 *642:1 1.4
*END

*D_NET *643 0.0123842

*CONN
*I *769:SI I *C 11.165 75.835 *L 0.00172 *D SDFFQX1
*I *904:D I *C 10.005 70.615 *L 0.00181 *D SDFFQXL
*I *889:SI I *C 11.165 65.395 *L 0.00172 *D SDFFQX1
*I *784:SI I *C 11.165 62.785 *L 0.00172 *D SDFFQX1
*I *874:D I *C 16.385 60.175 *L 0.00183 *D SDFFQX1
*I *724:D I *C 25.085 62.785 *L 0.00183 *D SDFFQX1
*I *799:SI I *C 26.245 60.175 *L 0.00172 *D SDFFQX1
*I *754:SI I *C 18.995 65.395 *L 0.00172 *D SDFFQX1
*I *739:SI I *C 23.345 70.615 *L 0.00172 *D SDFFQX1
*I *859:SI I *C 19.285 73.225 *L 0.00172 *D SDFFQX1
*I *814:SI I *C 34.655 62.785 *L 0.00172 *D SDFFQX1
*I *829:SI I *C 36.975 62.785 *L 0.00172 *D SDFFQX1
*I *921:Y O *C 35.7325 59.885 *L 0 *D CLKINVX1
*I *844:D I *C 36.105 70.615 *L 0.00183 *D SDFFQX1

*CAP
1 *643:2 4.12795e-05
2 *643:3 4.12795e-05
3 *643:4 0.000409447
4 *643:5 0.000796146
5 *643:6 4.12795e-05
6 *643:7 0.0003867
7 *643:8 4.12795e-05
8 *643:9 4.12795e-05
9 *643:11 0.000350875
10 *643:13 0.000309596
11 *643:14 2.2747e-05
12 *643:15 0.000454941
13 *643:16 0.00022747
14 *643:17 2.2747e-05
15 *643:18 0.000432194
16 *643:20 0.000204723
17 *643:21 0.000123838
18 *643:22 6.19192e-05
19 *643:24 0.000123838
20 *643:25 0.000681111
21 *643:26 0.000409447
22 *643:27 0.0007036
23 *643:29 0.000363953
24 *643:30 4.54941e-05
25 *643:31 0.000204723
26 *643:32 8.44081e-05
27 *643:34 0.000144478
28 *643:35 0.000123838
29 *643:36 0.000204723
30 *643:38 0.000433434
31 *643:39 0.000123838
32 *643:40 0.000790213
33 *643:43 0.000288956
34 *643:44 0.000204723
35 *643:46 0.000863227
36 *643:48 0.000204723
37 *643:50 0.000194705
38 *643:54 0.000359295
39 *643:55 0.000121691
40 *643:57 0.000102656
41 *643:58 0.000256639
42 *643:60 2.43381e-05
43 *643:61 2.43381e-05
44 *643:63 2.43381e-05
45 *643:64 2.43381e-05
46 *643:65 0.00059027
47 *643:66 7.07971e-06
48 *643:67 0.00059027
49 *643:68 7.07971e-06
50 *643:69 2.43381e-05
51 *643:71 2.43381e-05

*RES
1 *643:72 *844:D 1.4
2 *643:71 *643:72 1.4
3 *643:69 *643:71 0.124283
4 *643:68 *921:Y 1.4
5 *643:67 *643:69 1.4
6 *643:66 *643:68 0.0342849
7 *643:65 *643:67 2.8585
8 *643:64 *643:66 1.4
9 *643:63 *643:65 1.4
10 *643:61 *643:64 0.124283
11 *643:60 *643:63 0.124283
12 *643:59 *829:SI 1.4
13 *643:58 *643:61 1.4
14 *643:57 *643:60 1.4
15 *643:55 *643:59 1.4
16 *643:54 *643:58 1.24283
17 *643:54 *643:57 0.497131
18 *643:51 *814:SI 1.4
19 *643:50 *643:55 0.621413
20 *643:50 *643:54 1.4
21 *643:48 *859:SI 1.4
22 *643:47 *739:SI 1.4
23 *643:46 *643:51 1.4
24 *643:46 *643:50 0.372848
25 *643:45 *754:SI 1.4
26 *643:44 *643:48 1.11855
27 *643:43 *643:47 1.4
28 *643:40 *643:46 4.10133
29 *643:39 *643:45 1.4
30 *643:38 *643:44 1.4
31 *643:38 *643:43 1.73996
32 *643:37 *799:SI 1.4
33 *643:36 *724:D 1.4
34 *643:36 *643:40 1.4
35 *643:35 *643:39 0.745699
36 *643:34 *643:38 0.869982
37 *643:32 *643:37 1.4
38 *643:31 *643:36 1.11855
39 *643:30 *643:35 1.4
40 *643:29 *643:34 1.4
41 *643:28 *874:D 1.4
42 *643:27 *643:32 0.497132
43 *643:27 *643:31 1.4
44 *643:26 *643:30 0.248567
45 *643:26 *643:29 1.98854
46 *643:25 *643:28 1.4
47 *643:25 *643:27 3.72849
48 *643:24 *643:26 1.4
49 *643:22 *643:25 0.372849
50 *643:21 *643:24 0.745699
51 *643:20 *784:SI 1.4
52 *643:18 *643:22 1.4
53 *643:17 *643:21 1.4
54 *643:16 *643:20 1.11855
55 *643:16 *889:SI 1.4
56 *643:15 *643:18 2.36139
57 *643:15 *643:17 0.124284
58 *643:14 *643:16 0.124284
59 *643:13 *643:15 1.4
60 *643:11 *643:14 1.4
61 *643:11 *643:13 1.86425
62 *643:10 *904:D 1.4
63 *643:9 *643:11 0.248566
64 *643:8 *643:10 1.4
65 *643:7 *643:9 1.4
66 *643:6 *643:8 0.248566
67 *643:5 *643:7 2.11282
68 *643:5 *643:6 1.4
69 *643:4 *643:5 2.2371
70 *643:3 *643:4 1.4
71 *643:2 *643:3 0.248566
72 *643:1 *643:2 1.4
73 *769:SI *643:1 1.4
*END

*D_NET *644 0.0132423

*CONN
*I *795:SI I *C 74.965 28.855 *L 0.00172 *D SDFFQX1
*I *780:SI I *C 75.255 31.465 *L 0.00172 *D SDFFQX1
*I *840:SI I *C 77.575 36.685 *L 0.00169 *D SDFFQXL
*I *825:SI I *C 83.665 31.465 *L 0.00169 *D SDFFQXL
*I *810:SI I *C 83.375 26.245 *L 0.00169 *D SDFFQXL
*I *750:SI I *C 77.285 39.295 *L 0.00172 *D SDFFQX1
*I *870:SI I *C 68.875 39.295 *L 0.00169 *D SDFFQXL
*I *855:D I *C 68.005 41.905 *L 0.00181 *D SDFFQXL
*I *885:D I *C 69.455 47.125 *L 0.00181 *D SDFFQXL
*I *915:D I *C 67.135 54.955 *L 0.00181 *D SDFFQXL
*I *765:SI I *C 76.705 49.735 *L 0.00172 *D SDFFQX1
*I *735:D I *C 80.185 49.735 *L 0.00183 *D SDFFQX1
*I *900:SI I *C 65.975 57.565 *L 0.00169 *D SDFFQXL
*I *922:Y O *C 81.7175 57.855 *L 0 *D CLKINVX1

*CAP
1 *644:1 0.000129653
2 *644:2 0.000129653
3 *644:3 2.61838e-05
4 *644:4 0.000235655
5 *644:5 0.000209471
6 *644:6 6.48267e-05
7 *644:7 6.48267e-05
8 *644:8 6.48267e-05
9 *644:9 0.000453787
10 *644:11 0.00058344
11 *644:12 0.00051183
12 *644:13 0.00019448
13 *644:15 0.000537337
14 *644:16 2.61838e-05
15 *644:17 2.55069e-05
16 *644:18 0.00038951
17 *644:19 0.000785515
18 *644:21 0.00038951
19 *644:23 0.000837883
20 *644:28 7.85515e-05
21 *644:30 0.00019448
22 *644:31 0.000540222
23 *644:32 0.000345742
24 *644:34 0.000209471
25 *644:35 0.000130919
26 *644:36 7.85515e-05
27 *644:37 4.32178e-05
28 *644:38 0.000650513
29 *644:39 0.000237698
30 *644:40 0.000674633
31 *644:41 0.00019448
32 *644:43 2.412e-05
33 *644:45 0.000654596
34 *644:46 0.000105024
35 *644:47 0.000964402
36 *644:48 0.000105024
37 *644:49 0.000462847
38 *644:51 0.00019296
39 *644:52 0.000153041
40 *644:55 0.00019296
41 *644:56 0.000641388
42 *644:59 0.000641388
43 *644:60 2.61369e-05
44 *644:61 2.61369e-05
45 *644:62 6.87595e-06
46 *644:63 6.87595e-06

*RES
1 *644:63 *922:Y 1.4
2 *644:62 *644:63 0.0364293
3 *644:61 *644:62 1.4
4 *644:60 *644:61 0.124289
5 *644:59 *644:60 1.4
6 *644:56 *644:59 3.48007
7 *644:55 *900:SI 1.4
8 *644:53 *735:D 1.4
9 *644:52 *644:56 1.4
10 *644:51 *644:55 0.994268
11 *644:50 *765:SI 1.4
12 *644:49 *644:53 1.4
13 *644:49 *644:52 0.745732
14 *644:48 *644:51 1.4
15 *644:47 *644:50 1.4
16 *644:47 *644:49 1.49146
17 *644:46 *644:48 0.497131
18 *644:45 *644:47 3.10722
19 *644:43 *644:46 1.4
20 *644:41 *644:45 1.4
21 *644:40 *915:D 1.4
22 *644:40 *644:43 0.124284
23 *644:39 *885:D 1.4
24 *644:39 *644:41 1.11855
25 *644:38 *644:40 3.60422
26 *644:37 *644:39 0.248567
27 *644:36 *644:38 1.4
28 *644:35 *644:37 1.4
29 *644:34 *644:36 0.372866
30 *644:34 *644:35 0.621444
31 *644:32 *644:34 1.4
32 *644:31 *855:D 1.4
33 *644:31 *644:32 1.98853
34 *644:30 *644:31 1.11855
35 *644:28 *644:30 1.4
36 *644:27 *870:SI 1.4
37 *644:23 *644:28 0.372866
38 *644:23 *644:27 1.4
39 *644:22 *750:SI 1.4
40 *644:21 *810:SI 1.4
41 *644:20 *825:SI 1.4
42 *644:19 *644:23 3.60437
43 *644:19 *644:22 1.4
44 *644:18 *644:21 2.2372
45 *644:17 *644:20 1.4
46 *644:16 *644:19 0.124289
47 *644:15 *644:18 1.4
48 *644:15 *644:17 0.124289
49 *644:13 *644:16 1.4
50 *644:12 *644:15 2.48577
51 *644:11 *840:SI 1.4
52 *644:11 *644:13 1.11855
53 *644:9 *644:12 1.4
54 *644:9 *644:11 2.2371
55 *644:8 *780:SI 1.4
56 *644:7 *644:9 0.37285
57 *644:6 *644:8 0.37285
58 *644:5 *644:7 1.4
59 *644:4 *644:6 1.4
60 *644:4 *644:5 0.99431
61 *644:3 *644:4 0.124289
62 *644:2 *644:3 1.4
63 *644:1 *644:2 0.745701
64 *795:SI *644:1 1.4
*END

*D_NET *645 0.017089

*CONN
*I *1279:B0 I *C 34.365 91.495 *L 0.0028 *D OAI211X1
*I *1262:B0 I *C 43.065 96.715 *L 0.0028 *D OAI211X1
*I *1330:A I *C 46.255 57.565 *L 0.00157 *D NAND2XL
*I *1298:B0 I *C 47.125 96.715 *L 0.0028 *D OAI211X1
*I *1321:A0 I *C 44.515 54.665 *L 0.00155 *D AO21X1
*I *1193:A I *C 40.165 52.345 *L 0.00157 *D NAND2XL
*I *1337:Y O *C 40.3725 31.755 *L 0 *D CLKINVX1
*I *1355:B I *C 32.045 31.465 *L 0.00167 *D NAND2XL

*CAP
1 *645:1 0.000473462
2 *645:2 0.000473462
3 *645:3 0.000741121
4 *645:4 0.00101287
5 *645:5 0.000271744
6 *645:6 2.49191e-05
7 *645:7 2.49191e-05
8 *645:8 2.49191e-05
9 *645:9 0.00344225
10 *645:11 7.41121e-05
11 *645:12 0.00367397
12 *645:13 7.41121e-05
13 *645:15 0.000256639
14 *645:17 0.000146029
15 *645:19 0.0005111
16 *645:21 0.000365071
17 *645:23 0.000205311
18 *645:24 0.00198589
19 *645:26 0.00180565
20 *645:27 2.52156e-05
21 *645:28 2.50744e-05
22 *645:29 2.52156e-05
23 *645:30 0.000706038
24 *645:31 6.91706e-06
25 *645:32 0.000706038
26 *645:33 6.91706e-06

*RES
1 *645:34 *1355:B 1.4
2 *645:33 *1337:Y 1.4
3 *645:32 *645:34 1.4
4 *645:31 *645:33 0.0342865
5 *645:30 *645:32 3.47992
6 *645:29 *645:31 1.4
7 *645:28 *645:30 1.4
8 *645:27 *645:29 0.124283
9 *645:26 *645:28 0.124289
10 *645:26 *645:27 1.4
11 *645:24 *645:26 8.82448
12 *645:24 *1193:A 1.4
13 *645:23 *645:24 0.994261
14 *645:21 *645:23 1.4
15 *645:20 *1321:A0 1.4
16 *645:19 *645:21 1.86424
17 *645:19 *645:20 1.4
18 *645:17 *645:19 0.745696
19 *645:16 *1298:B0 1.4
20 *645:15 *645:17 1.4
21 *645:13 *645:16 1.4
22 *645:12 *645:15 1.24283
23 *645:12 *1330:A 1.4
24 *645:11 *645:13 0.372849
25 *645:9 *645:12 16.7785
26 *645:9 *645:11 1.4
27 *645:8 *1262:B0 1.4
28 *645:7 *645:9 0.124289
29 *645:6 *645:8 0.124289
30 *645:5 *645:7 1.4
31 *645:4 *645:6 1.4
32 *645:4 *645:5 1.36711
33 *645:3 *645:4 3.72849
34 *645:2 *645:3 1.4
35 *645:1 *645:2 2.36149
36 *1279:B0 *645:1 1.4
*END

*D_NET *646 0.00231023

*CONN
*I *1336:B I *C 44.225 32.045 *L 0.00285 *D NAND3X1
*I *1202:Y O *C 44.515 36.395 *L 0 *D NOR2XL
*I *1128:A I *C 47.125 36.685 *L 0.00157 *D NAND2XL
*I *1335:C I *C 44.515 34.075 *L 0.00175 *D NAND4BBXL

*CAP
1 *646:2 2.52156e-05
2 *646:3 2.52156e-05
3 *646:4 0.000476413
4 *646:5 0.000476413
5 *646:6 5.04313e-05
6 *646:7 0.000277372
7 *646:8 0.000226941
8 *646:9 0.000100297
9 *646:10 7.52231e-05
10 *646:11 0.000300892
11 *646:12 7.52231e-05
12 *646:14 0.000200595

*RES
1 *646:14 *1335:C 1.4
2 *646:12 *1128:A 1.4
3 *646:11 *646:14 0.994308
4 *646:11 *1202:Y 1.4
5 *646:10 *646:12 0.372866
6 *646:9 *646:11 0.497154
7 *646:8 *646:10 1.4
8 *646:7 *646:9 1.4
9 *646:7 *646:8 1.11855
10 *646:6 *646:7 0.248566
11 *646:5 *646:6 1.4
12 *646:4 *646:5 2.36148
13 *646:3 *646:4 1.4
14 *646:2 *646:3 0.124283
15 *646:1 *646:2 1.4
16 *1336:B *646:1 1.4
*END

*D_NET *647 0.00498187

*CONN
*I *1277:A0 I *C 74.675 60.175 *L 0.00164 *D OAI21XL
*I *1270:A0 I *C 77.865 57.565 *L 0.00164 *D OAI21XL
*I *922:A I *C 81.345 57.855 *L 0.00273 *D CLKINVX1
*I *957:Y O *C 81.355 44.225 *L 0 *D NOR2BX1
*I *1278:A0 I *C 80.185 62.785 *L 0.00164 *D OAI21XL

*CAP
1 *647:1 2.412e-05
2 *647:2 2.412e-05
3 *647:3 0.000288815
4 *647:4 0.000288815
5 *647:5 0.0002412
6 *647:6 0.00028944
7 *647:8 4.82399e-05
8 *647:9 0.000261547
9 *647:10 0.000313821
10 *647:11 5.22737e-05
11 *647:12 0.000469183
12 *647:13 0.00105254
13 *647:14 0.000469183
14 *647:15 7.03774e-05
15 *647:16 0.000982907
16 *647:17 5.22737e-05
17 *647:19 7.46189e-07
18 *647:20 5.22737e-05

*RES
1 *647:22 *1278:A0 1.4
2 *647:20 *647:22 1.4
3 *647:19 *957:Y 1.4
4 *647:17 *647:20 0.248578
5 *647:16 *647:19 0.00428582
6 *647:15 *922:A 1.4
7 *647:14 *647:17 1.4
8 *647:13 *647:16 5.46869
9 *647:13 *647:15 0.372864
10 *647:12 *647:14 2.48576
11 *647:11 *647:13 1.4
12 *647:10 *647:12 1.4
13 *647:10 *647:11 0.248578
14 *647:9 *647:10 1.24288
15 *647:8 *647:9 1.4
16 *647:6 *647:8 0.248567
17 *647:6 *1270:A0 1.4
18 *647:5 *647:6 1.24284
19 *647:4 *647:5 1.4
20 *647:3 *647:4 1.36711
21 *647:2 *647:3 1.4
22 *647:1 *647:2 0.124284
23 *1277:A0 *647:1 1.4
*END

*D_NET *648 0.00419418

*CONN
*I *1332:A I *C 49.445 54.665 *L 0.00162 *D NOR2XL
*I *1318:B I *C 48.285 60.175 *L 0.00167 *D NAND2XL
*I *1326:A I *C 46.545 54.665 *L 0.00162 *D NOR2XL
*I *944:A I *C 46.255 52.635 *L 0.00162 *D NOR2XL
*I *1193:Y O *C 40.745 52.925 *L 0 *D NAND2XL
*I *1190:A I *C 40.745 49.445 *L 0.00273 *D CLKINVX1

*CAP
1 *648:1 2.56639e-05
2 *648:2 2.56639e-05
3 *648:3 9.73524e-05
4 *648:4 0.000121691
5 *648:5 0.000513279
6 *648:6 2.43381e-05
7 *648:7 0.000513279
8 *648:8 0.000280829
9 *648:10 2.56639e-05
10 *648:11 0.000255165
11 *648:12 0.000121691
12 *648:13 0.000151294
13 *648:14 0.000121691
14 *648:15 0.000630391
15 *648:17 0.000101182
16 *648:18 0.000479097
17 *648:20 0.000101182
18 *648:21 0.000302366
19 *648:23 0.000126846
20 *648:24 0.00017552

*RES
1 *648:24 *1190:A 1.4
2 *648:23 *1193:Y 1.4
3 *648:21 *648:24 0.87002
4 *648:21 *648:23 0.621428
5 *648:20 *944:A 1.4
6 *648:18 *648:21 1.4
7 *648:17 *648:20 0.497145
8 *648:16 *1326:A 1.4
9 *648:15 *648:18 2.36138
10 *648:15 *648:17 1.4
11 *648:14 *648:16 1.4
12 *648:13 *648:15 0.745697
13 *648:12 *648:14 0.621413
14 *648:11 *648:13 1.4
15 *648:10 *648:12 1.4
16 *648:8 *648:11 1.24284
17 *648:8 *648:10 0.124283
18 *648:7 *1318:B 1.4
19 *648:6 *648:8 1.4
20 *648:5 *648:7 2.48565
21 *648:4 *648:6 0.124283
22 *648:4 *648:5 1.4
23 *648:3 *648:4 0.497131
24 *648:2 *648:3 1.4
25 *648:1 *648:2 0.124283
26 *1332:A *648:1 1.4
*END

*D_NET *649 0.00723457

*CONN
*I *1322:AN I *C 44.805 59.885 *L 0.00178 *D NAND2BX1
*I *1321:B0 I *C 43.645 54.665 *L 0.00175 *D AO21X1
*I *949:A I *C 43.645 52.345 *L 0.00178 *D AND3X1
*I *947:A I *C 43.645 49.735 *L 0.00178 *D AND3X1
*I *1327:A I *C 40.455 54.955 *L 0.00157 *D NAND2XL
*I *940:B I *C 38.135 41.9325 *L 0.00178 *D AND3X1
*I *1194:Y O *C 41.035 34.365 *L 0 *D NOR2XL
*I *1217:AN I *C 41.615 36.685 *L 0.00174 *D NOR2BX1

*CAP
1 *649:2 4.86762e-05
2 *649:3 4.86762e-05
3 *649:4 0.000487615
4 *649:5 0.000487615
5 *649:6 4.86762e-05
6 *649:7 0.000316395
7 *649:8 0.000205311
8 *649:9 0.000462424
9 *649:10 2.56639e-05
10 *649:11 0.000405611
11 *649:12 5.13279e-05
12 *649:13 0.000194705
13 *649:16 0.000225964
14 *649:17 5.13279e-05
15 *649:18 0.00108003
16 *649:21 0.00158411
17 *649:23 0.000504081
18 *649:24 0.000252156
19 *649:25 0.000302588
20 *649:26 5.04313e-05
21 *649:27 0.000150446
22 *649:28 5.01487e-05
23 *649:29 0.000150446
24 *649:30 5.01487e-05

*RES
1 *649:30 *1217:AN 1.4
2 *649:29 *1194:Y 1.4
3 *649:28 *649:30 0.248577
4 *649:27 *649:29 0.745731
5 *649:26 *649:28 1.4
6 *649:25 *649:27 1.4
7 *649:25 *649:26 0.248566
8 *649:24 *649:25 1.24283
9 *649:23 *649:24 1.4
10 *649:21 *649:23 2.49863
11 *649:21 *940:B 1.4
12 *649:18 *649:21 5.33151
13 *649:17 *1327:A 1.4
14 *649:16 *947:A 1.4
15 *649:13 *649:18 1.4
16 *649:12 *649:17 0.248565
17 *649:11 *649:16 1.11859
18 *649:11 *949:A 1.4
19 *649:10 *1321:B0 1.4
20 *649:9 *649:13 0.994261
21 *649:9 *649:12 1.4
22 *649:8 *649:11 0.869979
23 *649:8 *649:10 0.124283
24 *649:7 *649:9 1.36711
25 *649:7 *649:8 1.4
26 *649:6 *649:7 0.248565
27 *649:5 *649:6 1.4
28 *649:4 *649:5 2.36137
29 *649:3 *649:4 1.4
30 *649:2 *649:3 0.248565
31 *649:1 *649:2 1.4
32 *1322:AN *649:1 1.4
*END

*D_NET *650 0.0122338

*CONN
*I *753:SI I *C 62.785 47.125 *L 0.00172 *D SDFFQX1
*I *768:SI I *C 63.365 49.735 *L 0.00172 *D SDFFQX1
*I *888:D I *C 58.435 54.955 *L 0.00181 *D SDFFQXL
*I *903:SI I *C 55.245 49.735 *L 0.00172 *D SDFFQX1
*I *918:D I *C 55.245 57.565 *L 0.00181 *D SDFFQXL
*I *858:D I *C 53.215 47.125 *L 0.00181 *D SDFFQXL
*I *843:SI I *C 53.215 39.295 *L 0.00172 *D SDFFQX1
*I *873:SI I *C 55.245 39.295 *L 0.00172 *D SDFFQX1
*I *738:D I *C 59.015 36.685 *L 0.00183 *D SDFFQX1
*I *828:SI I *C 61.045 31.465 *L 0.00172 *D SDFFQX1
*I *783:SI I *C 58.435 31.465 *L 0.00172 *D SDFFQX1
*I *798:SI I *C 58.145 28.855 *L 0.00172 *D SDFFQX1
*I *813:SI I *C 66.555 28.855 *L 0.00172 *D SDFFQX1
*I *926:Y O *C 68.875 33.495 *L 0 *D OAI21X1

*CAP
1 *650:2 5.23677e-05
2 *650:3 5.23677e-05
3 *650:4 0.00019448
4 *650:5 0.000216089
5 *650:6 2.16089e-05
6 *650:8 0.000497493
7 *650:9 0.000497493
8 *650:10 2.16089e-05
9 *650:11 0.000391206
10 *650:12 0.000441957
11 *650:13 0.000235655
12 *650:14 7.23599e-05
13 *650:15 5.25118e-05
14 *650:16 0.000235655
15 *650:17 0.000236303
16 *650:18 5.25118e-05
17 *650:19 4.32178e-05
18 *650:20 0.000236303
19 *650:22 0.00019448
20 *650:23 0.00014472
21 *650:26 0.000151262
22 *650:27 0.00014472
23 *650:28 0.000183287
24 *650:30 0.000183287
25 *650:31 4.32178e-05
26 *650:32 0.000626658
27 *650:34 0.00058344
28 *650:35 0.000183287
29 *650:37 0.000628412
30 *650:38 0.000445125
31 *650:40 0.00019448
32 *650:42 0.00058344
33 *650:43 0.000104735
34 *650:44 0.000410569
35 *650:45 0.000104735
36 *650:46 7.85515e-05
37 *650:47 2.16089e-05
38 *650:49 7.85515e-05
39 *650:50 0.000157103
40 *650:53 0.000235655
41 *650:55 2.16089e-05
42 *650:56 7.85515e-05
43 *650:57 2.16089e-05
44 *650:58 0.000151262
45 *650:60 0.000151262
46 *650:61 5.23677e-05
47 *650:62 0.000811699
48 *650:63 0.000968802
49 *650:64 2.16089e-05
50 *650:65 0.000209471
51 *650:66 2.16089e-05
52 *650:67 2.16089e-05
53 *650:68 0.000324133
54 *650:69 2.16089e-05
55 *650:71 0.000324133

*RES
1 *650:71 *926:Y 1.4
2 *650:69 *813:SI 1.4
3 *650:68 *650:71 1.86425
4 *650:67 *798:SI 1.4
5 *650:66 *650:69 0.124283
6 *650:65 *650:68 1.4
7 *650:64 *650:67 0.124283
8 *650:63 *650:66 1.4
9 *650:63 *650:65 0.99431
10 *650:62 *650:64 1.4
11 *650:62 *650:63 3.60437
12 *650:61 *650:62 0.248577
13 *650:60 *650:61 1.4
14 *650:58 *650:60 0.869984
15 *650:57 *783:SI 1.4
16 *650:56 *650:58 1.4
17 *650:55 *650:57 0.124283
18 *650:53 *650:56 0.372866
19 *650:53 *650:55 1.4
20 *650:52 *828:SI 1.4
21 *650:50 *650:53 0.745732
22 *650:49 *650:52 1.4
23 *650:48 *738:D 1.4
24 *650:47 *650:50 1.4
25 *650:46 *650:49 0.372866
26 *650:45 *650:48 1.4
27 *650:44 *650:47 0.124283
28 *650:44 *650:46 1.4
29 *650:43 *650:45 0.497155
30 *650:42 *650:44 2.2371
31 *650:42 *650:43 1.4
32 *650:40 *650:42 1.11855
33 *650:39 *873:SI 1.4
34 *650:38 *650:40 1.4
35 *650:37 *650:39 1.4
36 *650:37 *650:38 2.11291
37 *650:35 *650:37 0.870021
38 *650:34 *843:SI 1.4
39 *650:34 *650:35 1.4
40 *650:32 *650:34 3.35565
41 *650:32 *858:D 1.4
42 *650:31 *650:32 0.248567
43 *650:30 *650:31 1.4
44 *650:28 *650:30 0.870021
45 *650:27 *918:D 1.4
46 *650:26 *650:28 1.4
47 *650:23 *650:27 0.745701
48 *650:22 *650:26 0.869984
49 *650:22 *903:SI 1.4
50 *650:21 *888:D 1.4
51 *650:20 *650:23 1.4
52 *650:19 *650:22 0.248567
53 *650:18 *650:21 1.4
54 *650:17 *650:20 1.11855
55 *650:16 *650:19 1.4
56 *650:15 *650:18 0.248566
57 *650:14 *650:17 1.4
58 *650:13 *650:16 1.1186
59 *650:12 *650:15 1.4
60 *650:12 *650:14 0.372851
61 *650:11 *650:13 1.4
62 *650:11 *650:12 1.98854
63 *650:10 *650:11 0.124283
64 *650:9 *650:10 1.4
65 *650:8 *650:9 2.36149
66 *650:6 *650:8 1.4
67 *650:5 *768:SI 1.4
68 *650:5 *650:6 0.124283
69 *650:4 *650:5 1.11855
70 *650:3 *650:4 1.4
71 *650:2 *650:3 0.248577
72 *650:1 *650:2 1.4
73 *753:SI *650:1 1.4
*END

*D_NET *651 0.0019113

*CONN
*I *1334:B I *C 48.575 33.785 *L 0.00165 *D OR2X1
*I *1335:BN I *C 45.965 33.785 *L 0.00157 *D NAND4BBXL
*I *956:Y O *C 48.285 31.175 *L 0 *D NAND2X1
*I *923:A I *C 45.965 28.565 *L 0.00273 *D CLKINVX1

*CAP
1 *651:2 0.000201725
2 *651:3 0.000226941
3 *651:4 0.000100297
4 *651:5 2.52156e-05
5 *651:6 0.000100297
6 *651:8 7.56469e-05
7 *651:10 7.56469e-05
8 *651:11 0.000125372
9 *651:12 0.000351041
10 *651:13 0.000100863
11 *651:14 0.000225669
12 *651:15 0.000100863
13 *651:16 0.000100863
14 *651:18 0.000100863

*RES
1 *651:20 *923:A 1.4
2 *651:18 *651:20 1.4
3 *651:17 *956:Y 1.4
4 *651:16 *651:18 0.497132
5 *651:15 *651:17 1.4
6 *651:14 *651:16 1.4
7 *651:13 *651:15 0.497132
8 *651:12 *651:14 1.1186
9 *651:12 *651:13 1.4
10 *651:11 *651:12 0.621443
11 *651:10 *651:11 1.4
12 *651:8 *651:10 0.372849
13 *651:7 *1335:BN 1.4
14 *651:6 *651:8 1.4
15 *651:5 *651:7 1.4
16 *651:4 *651:6 0.497154
17 *651:3 *651:5 0.124283
18 *651:3 *651:4 1.4
19 *651:2 *651:3 0.994263
20 *651:1 *651:2 1.4
21 *1334:B *651:1 1.4
*END

*D_NET *652 0.0199858

*CONN
*I *734:D I *C 111.505 86.275 *L 0.00183 *D SDFFQX1
*I *809:SI I *C 116.145 83.665 *L 0.00169 *D SDFFQXL
*I *839:SI I *C 119.045 83.665 *L 0.00169 *D SDFFQXL
*I *1285:B1 I *C 122.235 81.055 *L 0.00171 *D AO22XL
*I *854:D I *C 121.075 75.835 *L 0.00181 *D SDFFQXL
*I *1295:B1 I *C 114.115 73.225 *L 0.00171 *D AO22XL
*I *869:SI I *C 125.425 70.615 *L 0.00169 *D SDFFQXL
*I *884:D I *C 107.155 70.615 *L 0.00181 *D SDFFQXL
*I *749:SI I *C 111.795 68.005 *L 0.00172 *D SDFFQX1
*I *764:SI I *C 125.715 68.005 *L 0.00172 *D SDFFQX1
*I *1294:B1 I *C 106.285 75.835 *L 0.00171 *D AO22XL
*I *927:Y O *C 96.425 80.475 *L 0 *D OAI21X1
*I *794:SI I *C 90.625 91.495 *L 0.00172 *D SDFFQX1
*I *779:SI I *C 96.425 94.105 *L 0.00172 *D SDFFQX1
*I *824:SI I *C 90.045 86.275 *L 0.00169 *D SDFFQXL
*I *899:SI I *C 82.505 91.495 *L 0.00169 *D SDFFQXL
*I *914:D I *C 81.925 83.665 *L 0.00181 *D SDFFQXL

*CAP
1 *652:1 4.59092e-05
2 *652:2 4.59092e-05
3 *652:3 0.000175672
4 *652:4 0.000175672
5 *652:5 0.000206592
6 *652:6 0.000206592
7 *652:7 0.000175672
8 *652:8 0.000395262
9 *652:9 0.000263508
10 *652:10 4.59092e-05
11 *652:11 4.39181e-05
12 *652:12 4.59092e-05
13 *652:13 4.59092e-05
14 *652:14 0.000252501
15 *652:15 4.59092e-05
16 *652:17 0.000252501
17 *652:19 0.000131754
18 *652:20 0.000197631
19 *652:21 6.58771e-05
20 *652:22 0.00042908
21 *652:24 0.000677328
22 *652:26 2.20611e-05
23 *652:27 0.000248248
24 *652:28 2.20611e-05
25 *652:29 4.41221e-05
26 *652:31 0.000551526
27 *652:33 0.000198598
28 *652:34 0.000705954
29 *652:35 0.000198598
30 *652:36 2.48248e-05
31 *652:37 0.000198549
32 *652:38 0.000330916
33 *652:39 2.48248e-05
34 *652:40 0.000148949
35 *652:41 0.000352977
36 *652:43 0.000422021
37 *652:44 2.20611e-05
38 *652:45 0.000223423
39 *652:46 0.000330916
40 *652:47 0.000273073
41 *652:49 0.000223423
42 *652:50 0.000330916
43 *652:51 2.20611e-05
44 *652:53 4.41221e-05
45 *652:54 0.000446846
46 *652:55 2.20611e-05
47 *652:56 4.41221e-05
48 *652:57 0.000780367
49 *652:58 4.96496e-05
50 *652:61 0.00038317
51 *652:62 6.61832e-05
52 *652:66 0.000915245
53 *652:67 6.61832e-05
54 *652:68 0.000915245
55 *652:70 0.000960962
56 *652:72 0.000960962
57 *652:74 2.56958e-05
58 *652:75 0.000513916
59 *652:76 0.00019712
60 *652:77 0.000565307
61 *652:78 0.00019712
62 *652:79 2.46401e-05
63 *652:80 7.70873e-05
64 *652:81 2.56958e-05
65 *652:82 2.46401e-05
66 *652:83 9.85602e-05
67 *652:84 2.56958e-05
68 *652:86 0.000468161
69 *652:88 0.000591003
70 *652:89 0.000369601
71 *652:91 0.000591003
72 *652:92 2.56958e-05
73 *652:93 0.000665282
74 *652:94 2.56958e-05
75 *652:95 7.39202e-05
76 *652:96 0.000591361
77 *652:98 5.13916e-05
78 *652:99 0.000102783
79 *652:101 5.13916e-05
80 *652:102 0.000102783

*RES
1 *652:104 *914:D 1.4
2 *652:103 *899:SI 1.4
3 *652:102 *652:104 1.4
4 *652:101 *652:103 1.4
5 *652:99 *652:102 0.497131
6 *652:98 *652:101 0.248566
7 *652:97 *824:SI 1.4
8 *652:96 *652:99 1.4
9 *652:95 *652:98 1.4
10 *652:94 *652:97 1.4
11 *652:93 *652:96 2.98293
12 *652:93 *652:95 0.372866
13 *652:92 *652:94 0.124283
14 *652:91 *652:93 1.4
15 *652:89 *652:92 1.4
16 *652:88 *652:91 2.85851
17 *652:87 *779:SI 1.4
18 *652:86 *652:89 1.86433
19 *652:86 *652:88 1.4
20 *652:84 *652:87 1.4
21 *652:83 *652:86 0.497155
22 *652:82 *794:SI 1.4
23 *652:81 *652:84 0.124283
24 *652:80 *652:83 1.4
25 *652:79 *652:82 0.124289
26 *652:78 *652:81 1.4
27 *652:77 *652:80 0.372849
28 *652:77 *652:79 1.4
29 *652:76 *652:78 0.99431
30 *652:75 *652:77 2.36137
31 *652:75 *652:76 1.4
32 *652:74 *652:75 0.124283
33 *652:72 *652:74 1.4
34 *652:70 *927:Y 1.4
35 *652:70 *652:72 4.84726
36 *652:69 *1294:B1 1.4
37 *652:68 *652:70 1.4
38 *652:67 *652:69 1.4
39 *652:66 *652:68 4.59852
40 *652:62 *652:67 0.372866
41 *652:61 *652:66 1.4
42 *652:60 *764:SI 1.4
43 *652:59 *749:SI 1.4
44 *652:58 *884:D 1.4
45 *652:57 *652:62 1.4
46 *652:57 *652:61 1.98857
47 *652:56 *652:60 1.4
48 *652:55 *652:59 1.4
49 *652:54 *652:58 0.248577
50 *652:54 *652:57 1.98862
51 *652:53 *652:56 0.248578
52 *652:51 *652:55 0.124289
53 *652:50 *652:54 1.4
54 *652:49 *652:53 1.4
55 *652:48 *869:SI 1.4
56 *652:47 *652:51 1.4
57 *652:46 *652:50 1.86433
58 *652:45 *652:49 1.1186
59 *652:44 *652:48 1.4
60 *652:43 *652:47 1.36718
61 *652:43 *652:46 1.4
62 *652:41 *652:45 1.4
63 *652:41 *652:44 0.124289
64 *652:40 *652:43 0.745732
65 *652:39 *1295:B1 1.4
66 *652:38 *652:41 1.86433
67 *652:37 *652:40 1.4
68 *652:36 *652:39 0.124289
69 *652:35 *652:38 1.4
70 *652:34 *652:37 1.1186
71 *652:34 *652:36 1.4
72 *652:33 *652:35 0.99431
73 *652:31 *652:34 2.85864
74 *652:31 *652:33 1.4
75 *652:30 *854:D 1.4
76 *652:29 *652:31 0.248578
77 *652:28 *652:30 1.4
78 *652:27 *652:29 1.4
79 *652:26 *652:28 0.124289
80 *652:24 *652:27 1.24289
81 *652:24 *652:26 1.4
82 *652:23 *1285:B1 1.4
83 *652:22 *652:24 2.23714
84 *652:21 *652:23 1.4
85 *652:20 *652:22 1.4
86 *652:20 *652:21 0.372866
87 *652:19 *652:20 0.745732
88 *652:17 *652:19 1.4
89 *652:15 *839:SI 1.4
90 *652:14 *652:17 1.36711
91 *652:13 *809:SI 1.4
92 *652:12 *652:15 0.248565
93 *652:11 *652:14 1.4
94 *652:10 *652:13 0.248565
95 *652:9 *652:12 1.4
96 *652:9 *652:11 0.248577
97 *652:8 *652:10 1.4
98 *652:8 *652:9 1.24289
99 *652:7 *652:8 0.99431
100 *652:6 *652:7 1.4
101 *652:5 *652:6 1.11854
102 *652:4 *652:5 1.4
103 *652:3 *652:4 0.99431
104 *652:2 *652:3 1.4
105 *652:1 *652:2 0.248565
106 *734:D *652:1 1.4
*END

*D_NET *653 0.0168079

*CONN
*I *745:SI I *C 51.475 68.005 *L 0.00172 *D SDFFQX1
*I *1292:B1 I *C 52.055 73.225 *L 0.00171 *D AO22XL
*I *760:SI I *C 65.395 68.005 *L 0.00172 *D SDFFQX1
*I *865:SI I *C 54.375 62.785 *L 0.00172 *D SDFFQX1
*I *1288:B1 I *C 69.165 68.005 *L 0.00171 *D AO22XL
*I *835:SI I *C 70.905 70.615 *L 0.00172 *D SDFFQX1
*I *775:SI I *C 71.775 65.395 *L 0.00172 *D SDFFQX1
*I *790:SI I *C 70.325 62.785 *L 0.00172 *D SDFFQX1
*I *1282:B1 I *C 76.415 73.225 *L 0.00171 *D AO22XL
*I *730:D I *C 75.835 75.835 *L 0.00183 *D SDFFQX1
*I *880:D I *C 67.715 78.445 *L 0.00181 *D SDFFQXL
*I *805:SI I *C 75.545 83.665 *L 0.00172 *D SDFFQX1
*I *850:D I *C 67.425 75.835 *L 0.00181 *D SDFFQXL
*I *820:SI I *C 77.865 88.885 *L 0.00169 *D SDFFQXL
*I *910:D I *C 64.815 83.665 *L 0.00181 *D SDFFQXL
*I *895:SI I *C 66.845 88.885 *L 0.00172 *D SDFFQX1
*I *955:Y O *C 68.585 90.915 *L 0 *D OAI21X1

*CAP
1 *653:2 4.86762e-05
2 *653:3 4.86762e-05
3 *653:4 5.13279e-05
4 *653:5 0.000461951
5 *653:6 0.000235344
6 *653:7 0.000410623
7 *653:8 0.000235344
8 *653:10 2.412e-05
9 *653:11 0.000482399
10 *653:12 0.000971469
11 *653:13 0.000458279
12 *653:14 0.0013128
13 *653:15 2.62559e-05
14 *653:16 0.000472606
15 *653:17 2.412e-05
16 *653:18 2.62559e-05
17 *653:19 0.000157535
18 *653:20 2.412e-05
19 *653:21 2.412e-05
20 *653:23 0.00021708
21 *653:24 2.62559e-05
22 *653:25 2.412e-05
23 *653:28 0.00021708
24 *653:29 0.0002412
25 *653:31 2.62559e-05
26 *653:32 0.000458279
27 *653:33 0.000498862
28 *653:34 7.87677e-05
29 *653:35 0.00021708
30 *653:36 0.000472606
31 *653:37 2.412e-05
32 *653:38 7.87677e-05
33 *653:39 5.25118e-05
34 *653:40 0.00019296
35 *653:41 2.412e-05
36 *653:43 5.25118e-05
37 *653:44 0.000361799
38 *653:48 0.00016884
39 *653:49 2.62559e-05
40 *653:51 2.62559e-05
41 *653:52 2.62559e-05
42 *653:53 0.000761421
43 *653:55 4.82399e-05
44 *653:56 0.000735165
45 *653:58 0.000701488
46 *653:59 4.82399e-05
47 *653:60 0.00104091
48 *653:62 0.000265374
49 *653:63 0.000387657
50 *653:64 2.62548e-05
51 *653:65 0.00062902
52 *653:66 2.62559e-05
53 *653:67 0.000183783
54 *653:68 2.62548e-05
55 *653:69 0.000411886
56 *653:71 2.62559e-05
57 *653:72 0.000183783
58 *653:74 0.000288803
59 *653:76 4.84572e-05
60 *653:78 2.62548e-05
61 *653:79 0.000262548
62 *653:81 4.84572e-05
63 *653:82 0.000460343
64 *653:83 2.42286e-05
65 *653:85 0.000629943
66 *653:86 2.42286e-05
67 *653:87 0.0001696
68 *653:88 0.000105019
69 *653:90 5.25096e-05
70 *653:91 0.000105019
71 *653:92 5.25096e-05

*RES
1 *653:94 *955:Y 1.4
2 *653:93 *895:SI 1.4
3 *653:92 *653:94 1.4
4 *653:91 *653:93 1.4
5 *653:90 *653:92 0.248577
6 *653:88 *653:91 0.497155
7 *653:87 *653:90 1.4
8 *653:86 *910:D 1.4
9 *653:85 *653:88 1.4
10 *653:85 *653:87 0.870021
11 *653:83 *653:86 0.124289
12 *653:82 *653:85 2.36149
13 *653:81 *820:SI 1.4
14 *653:79 *653:83 1.4
15 *653:78 *653:82 1.4
16 *653:76 *653:81 0.248577
17 *653:75 *850:D 1.4
18 *653:74 *653:79 1.24289
19 *653:74 *653:78 0.124289
20 *653:73 *805:SI 1.4
21 *653:72 *653:76 1.4
22 *653:71 *653:75 1.4
23 *653:69 *653:74 1.4
24 *653:68 *653:73 1.4
25 *653:67 *653:72 0.870021
26 *653:66 *653:71 0.124283
27 *653:65 *880:D 1.4
28 *653:65 *653:69 2.11291
29 *653:64 *653:68 0.124289
30 *653:63 *653:67 1.4
31 *653:62 *653:66 1.4
32 *653:62 *653:65 1.11855
33 *653:60 *653:64 1.4
34 *653:60 *653:63 1.98862
35 *653:59 *653:62 0.248567
36 *653:58 *730:D 1.4
37 *653:58 *653:60 3.35575
38 *653:56 *653:59 1.4
39 *653:55 *653:58 0.248567
40 *653:54 *1282:B1 1.4
41 *653:53 *653:56 3.47992
42 *653:53 *653:55 1.4
43 *653:52 *653:54 1.4
44 *653:51 *653:53 0.124283
45 *653:49 *653:52 0.124283
46 *653:48 *653:51 1.4
47 *653:47 *790:SI 1.4
48 *653:44 *653:49 1.4
49 *653:44 *653:48 0.869985
50 *653:43 *653:47 1.4
51 *653:42 *775:SI 1.4
52 *653:41 *835:SI 1.4
53 *653:40 *653:44 0.994268
54 *653:39 *653:43 0.248566
55 *653:38 *653:42 1.4
56 *653:37 *653:41 0.124284
57 *653:36 *653:40 1.4
58 *653:35 *653:39 1.4
59 *653:34 *653:38 0.372849
60 *653:33 *653:37 1.4
61 *653:33 *653:36 2.23709
62 *653:32 *653:35 1.11855
63 *653:32 *653:34 1.4
64 *653:31 *653:33 0.124283
65 *653:29 *653:32 1.24284
66 *653:28 *653:31 1.4
67 *653:25 *1288:B1 1.4
68 *653:24 *653:29 1.4
69 *653:23 *653:28 1.11855
70 *653:22 *865:SI 1.4
71 *653:21 *760:SI 1.4
72 *653:20 *653:25 0.124284
73 *653:19 *653:24 0.124283
74 *653:19 *653:23 1.4
75 *653:18 *653:22 1.4
76 *653:17 *653:21 0.124284
77 *653:16 *653:20 1.4
78 *653:16 *653:19 0.621414
79 *653:15 *653:18 0.124283
80 *653:14 *653:17 1.4
81 *653:14 *653:16 1.61568
82 *653:13 *653:15 1.4
83 *653:12 *653:14 4.59847
84 *653:11 *653:13 2.36139
85 *653:11 *653:12 1.4
86 *653:10 *653:11 0.124284
87 *653:8 *653:10 1.4
88 *653:7 *1292:B1 1.4
89 *653:6 *653:8 1.11855
90 *653:5 *653:7 1.98852
91 *653:5 *653:6 1.4
92 *653:4 *653:5 0.248565
93 *653:3 *653:4 1.4
94 *653:2 *653:3 0.248565
95 *653:1 *653:2 1.4
96 *745:SI *653:1 1.4
*END

*D_NET *654 0.0226174

*CONN
*I *1296:B1 I *C 113.825 60.175 *L 0.00171 *D AO22XL
*I *1286:B1 I *C 122.235 57.565 *L 0.00171 *D AO22XL
*I *766:SI I *C 125.425 52.345 *L 0.00172 *D SDFFQX1
*I *856:D I *C 116.725 49.735 *L 0.00181 *D SDFFQXL
*I *886:D I *C 108.315 49.735 *L 0.00181 *D SDFFQXL
*I *871:SI I *C 125.425 39.295 *L 0.00169 *D SDFFQXL
*I *1297:B1 I *C 101.355 54.955 *L 0.00171 *D AO22XL
*I *916:D I *C 88.595 54.955 *L 0.00181 *D SDFFQXL
*I *841:SI I *C 119.335 34.075 *L 0.00169 *D SDFFQXL
*I *751:SI I *C 111.215 41.905 *L 0.00172 *D SDFFQX1
*I *811:SI I *C 110.925 34.075 *L 0.00172 *D SDFFQX1
*I *826:SI I *C 103.675 34.075 *L 0.00169 *D SDFFQXL
*I *736:D I *C 101.645 39.295 *L 0.00183 *D SDFFQX1
*I *781:SI I *C 100.195 31.465 *L 0.00172 *D SDFFQX1
*I *796:SI I *C 91.785 31.465 *L 0.00172 *D SDFFQX1
*I *938:Y O *C 89.755 38.715 *L 0 *D AO21X1
*I *901:SI I *C 91.495 44.515 *L 0.00169 *D SDFFQXL

*CAP
1 *654:2 0.000639771
2 *654:3 0.000639771
3 *654:4 0.000223423
4 *654:5 0.000595795
5 *654:7 0.000372372
6 *654:8 0.000198549
7 *654:9 0.000198549
8 *654:10 7.44744e-05
9 *654:11 0.000239036
10 *654:12 4.41221e-05
11 *654:13 0.000164562
12 *654:14 4.41221e-05
13 *654:15 0.000603107
14 *654:17 2.07968e-05
15 *654:18 0.00118542
16 *654:20 0.000750604
17 *654:21 2.02866e-05
18 *654:22 0.000769481
19 *654:23 0.000750604
20 *654:24 2.02866e-05
21 *654:25 2.02866e-05
22 *654:26 0.000166374
23 *654:27 0.000291155
24 *654:29 2.02866e-05
25 *654:30 0.00041281
26 *654:31 2.07968e-05
27 *654:32 0.000270358
28 *654:34 0.00041281
29 *654:36 0.000344872
30 *654:37 0.000395773
31 *654:39 0.000344872
32 *654:40 0.00154579
33 *654:41 0.000145578
34 *654:42 2.34591e-05
35 *654:43 0.00115002
36 *654:44 0.000727888
37 *654:45 2.34591e-05
38 *654:46 2.34591e-05
39 *654:47 2.02866e-05
40 *654:48 0.00058231
41 *654:50 2.34591e-05
42 *654:51 2.02866e-05
43 *654:52 0.000547738
44 *654:55 0.000527451
45 *654:56 2.02866e-05
46 *654:58 2.07968e-05
47 *654:59 0.000552492
48 *654:61 0.000710243
49 *654:64 0.000178548
50 *654:66 2.16395e-05
51 *654:67 0.00038951
52 *654:68 0.000367871
53 *654:69 0.000127535
54 *654:71 0.000127535
55 *654:72 0.000216395
56 *654:73 0.000259674
57 *654:75 4.32789e-05
58 *654:76 0.0007397
59 *654:77 0.0007397
60 *654:78 4.32789e-05
61 *654:79 0.000562626
62 *654:80 0.000519347
63 *654:82 5.10138e-05
64 *654:83 0.000178548
65 *654:84 0.000454429
66 *654:85 0.000127535
67 *654:86 0.000454429
68 *654:87 2.16395e-05
69 *654:88 2.55069e-05
70 *654:89 2.16395e-05
71 *654:90 2.55069e-05

*RES
1 *654:92 *901:SI 1.4
2 *654:90 *654:92 1.4
3 *654:89 *938:Y 1.4
4 *654:88 *654:90 0.124289
5 *654:87 *654:89 0.124289
6 *654:86 *654:88 1.4
7 *654:85 *654:87 1.4
8 *654:84 *654:86 2.61006
9 *654:83 *654:85 0.621444
10 *654:83 *654:84 1.4
11 *654:82 *654:83 0.248578
12 *654:80 *654:82 1.4
13 *654:79 *796:SI 1.4
14 *654:79 *654:80 2.98293
15 *654:78 *654:79 0.248578
16 *654:77 *654:78 1.4
17 *654:76 *654:77 3.60437
18 *654:75 *654:76 1.4
19 *654:73 *654:75 0.248578
20 *654:73 *781:SI 1.4
21 *654:72 *654:73 1.24289
22 *654:71 *654:72 1.4
23 *654:69 *654:71 0.621444
24 *654:68 *736:D 1.4
25 *654:67 *654:69 1.4
26 *654:67 *654:68 2.11291
27 *654:66 *654:67 0.124289
28 *654:64 *654:66 1.4
29 *654:63 *826:SI 1.4
30 *654:61 *654:64 0.870021
31 *654:61 *654:63 1.4
32 *654:60 *811:SI 1.4
33 *654:59 *654:61 3.10709
34 *654:59 *654:60 1.4
35 *654:58 *654:59 0.124283
36 *654:56 *654:58 1.4
37 *654:55 *751:SI 1.4
38 *654:52 *654:56 0.124283
39 *654:52 *654:55 3.23136
40 *654:51 *841:SI 1.4
41 *654:50 *916:D 1.4
42 *654:48 *654:52 1.4
43 *654:47 *654:51 0.124283
44 *654:46 *654:50 0.124288
45 *654:45 *1297:B1 1.4
46 *654:44 *654:48 3.47993
47 *654:44 *654:47 1.4
48 *654:43 *654:46 1.4
49 *654:42 *654:45 0.124288
50 *654:41 *654:44 0.869982
51 *654:40 *654:43 5.46871
52 *654:40 *654:42 1.4
53 *654:39 *654:41 1.4
54 *654:37 *654:40 1.98862
55 *654:36 *654:39 2.11281
56 *654:35 *871:SI 1.4
57 *654:34 *654:37 1.4
58 *654:32 *654:36 1.4
59 *654:31 *654:35 1.4
60 *654:30 *654:34 2.23716
61 *654:29 *886:D 1.4
62 *654:27 *654:32 1.61568
63 *654:27 *654:31 0.124283
64 *654:26 *654:30 1.4
65 *654:25 *654:29 0.124283
66 *654:24 *856:D 1.4
67 *654:23 *654:27 1.4
68 *654:22 *654:26 0.994265
69 *654:22 *654:25 1.4
70 *654:21 *654:24 0.124283
71 *654:20 *654:23 4.59848
72 *654:18 *654:22 3.60421
73 *654:18 *654:21 1.4
74 *654:17 *654:20 1.4
75 *654:16 *766:SI 1.4
76 *654:15 *654:18 3.47993
77 *654:15 *654:17 0.124283
78 *654:14 *654:16 1.4
79 *654:13 *654:15 1.4
80 *654:12 *654:14 0.248578
81 *654:11 *654:13 0.994268
82 *654:11 *654:12 1.4
83 *654:10 *654:11 0.372866
84 *654:9 *654:10 1.4
85 *654:8 *654:9 1.1186
86 *654:7 *654:8 1.4
87 *654:5 *654:7 1.86433
88 *654:5 *1286:B1 1.4
89 *654:4 *654:5 1.1186
90 *654:3 *654:4 1.4
91 *654:2 *654:3 3.60437
92 *654:1 *654:2 1.4
93 *1296:B1 *654:1 1.4
*END

*D_NET *655 0.0169584

*CONN
*I *786:SI I *C 11.455 78.445 *L 0.00172 *D SDFFQX1
*I *771:SI I *C 11.455 83.665 *L 0.00172 *D SDFFQX1
*I *891:SI I *C 11.165 91.495 *L 0.00172 *D SDFFQX1
*I *756:SI I *C 19.285 91.495 *L 0.00172 *D SDFFQX1
*I *906:D I *C 10.005 94.105 *L 0.00181 *D SDFFQXL
*I *876:D I *C 17.835 88.885 *L 0.00181 *D SDFFQXL
*I *861:SI I *C 19.865 96.715 *L 0.00172 *D SDFFQX1
*I *972:Y O *C 24.505 90.915 *L 0 *D CLKXOR2X1
*I *801:SI I *C 27.695 88.885 *L 0.00172 *D SDFFQX1
*I *741:SI I *C 22.475 81.055 *L 0.00172 *D SDFFQX1
*I *816:SI I *C 37.265 86.275 *L 0.00172 *D SDFFQX1
*I *726:D I *C 27.115 78.445 *L 0.00183 *D SDFFQX1
*I *846:D I *C 39.875 81.055 *L 0.00181 *D SDFFQXL
*I *1289:B1 I *C 43.935 73.225 *L 0.00171 *D AO22XL
*I *1283:B1 I *C 44.805 81.055 *L 0.00171 *D AO22XL
*I *831:SI I *C 36.395 73.225 *L 0.00172 *D SDFFQX1
*I *1280:B1 I *C 48.285 73.225 *L 0.00171 *D AO22XL

*CAP
1 *655:2 2.03807e-05
2 *655:3 2.03807e-05
3 *655:4 0.0003784
4 *655:5 0.000945999
5 *655:6 0.000567599
6 *655:7 2.03807e-05
7 *655:8 0.000427995
8 *655:9 2.03807e-05
9 *655:10 0.000529899
10 *655:11 0.000122284
11 *655:13 0.000142665
12 *655:14 0.0001892
13 *655:16 8.15229e-05
14 *655:18 2.10222e-05
15 *655:19 0.0001892
16 *655:21 0.0001892
17 *655:23 2.10222e-05
18 *655:24 4.07614e-05
19 *655:25 0.0001892
20 *655:26 4.07614e-05
21 *655:27 4.07614e-05
22 *655:29 4.07614e-05
23 *655:31 2.10222e-05
24 *655:33 0.000399422
25 *655:34 0.000244569
26 *655:35 0.0003784
27 *655:36 0.000244569
28 *655:38 0.0001892
29 *655:39 0.0001892
30 *655:40 0.000142665
31 *655:41 0.000329489
32 *655:42 6.11421e-05
33 *655:43 0.000147155
34 *655:44 0.0010632
35 *655:45 0.000567599
36 *655:46 0.000147155
37 *655:47 0.000815233
38 *655:49 0.000756799
39 *655:51 0.000224272
40 *655:54 0.0001892
41 *655:55 0.000647896
42 *655:56 0.000341223
43 *655:58 0.000423624
44 *655:59 0.000341223
45 *655:60 0.000222336
46 *655:62 0.000568193
47 *655:64 0.000345857
48 *655:65 2.49191e-05
49 *655:66 2.49191e-05
50 *655:67 2.49191e-05
51 *655:68 0.000710769
52 *655:70 7.41121e-05
53 *655:71 0.000711514
54 *655:72 7.41121e-05
55 *655:74 0.000632791
56 *655:75 2.56639e-05
57 *655:77 0.000632791
58 *655:78 0.000365071
59 *655:81 0.000365071
60 *655:83 2.56639e-05
61 *655:84 2.56639e-05

*RES
1 *655:84 *1280:B1 1.4
2 *655:83 *655:84 0.124283
3 *655:81 *655:83 1.4
4 *655:80 *831:SI 1.4
5 *655:78 *655:81 1.86424
6 *655:77 *655:80 1.4
7 *655:76 *1283:B1 1.4
8 *655:75 *655:78 1.4
9 *655:74 *655:77 3.23135
10 *655:72 *655:76 1.4
11 *655:71 *655:75 0.124283
12 *655:71 *655:74 1.4
13 *655:71 *1289:B1 1.4
14 *655:70 *655:72 0.372849
15 *655:68 *655:71 3.35569
16 *655:68 *655:70 1.4
17 *655:67 *846:D 1.4
18 *655:66 *655:68 0.124289
19 *655:65 *655:67 0.124289
20 *655:64 *655:66 1.4
21 *655:62 *655:65 1.4
22 *655:62 *655:64 1.73996
23 *655:61 *726:D 1.4
24 *655:60 *655:62 1.11855
25 *655:59 *655:61 1.4
26 *655:58 *655:60 1.4
27 *655:56 *655:59 1.98853
28 *655:55 *655:58 2.11291
29 *655:55 *816:SI 1.4
30 *655:54 *655:56 1.4
31 *655:51 *655:55 1.1186
32 *655:49 *655:54 1.11854
33 *655:49 *741:SI 1.4
34 *655:48 *801:SI 1.4
35 *655:47 *655:51 1.4
36 *655:46 *972:Y 1.4
37 *655:45 *655:49 3.35563
38 *655:44 *655:48 1.4
39 *655:44 *655:47 4.10134
40 *655:43 *655:46 0.869979
41 *655:42 *655:45 1.4
42 *655:41 *655:44 1.36711
43 *655:41 *655:43 1.4
44 *655:40 *655:42 0.372849
45 *655:40 *655:41 0.497132
46 *655:39 *655:40 1.4
47 *655:38 *655:39 1.11854
48 *655:36 *655:38 1.4
49 *655:35 *861:SI 1.4
50 *655:34 *655:36 1.4914
51 *655:33 *655:35 2.23709
52 *655:33 *655:34 1.4
53 *655:31 *655:33 0.124283
54 *655:30 *876:D 1.4
55 *655:29 *655:31 1.4
56 *655:27 *655:30 1.4
57 *655:26 *655:29 0.248566
58 *655:25 *906:D 1.4
59 *655:24 *655:27 0.248566
60 *655:23 *655:26 1.4
61 *655:21 *655:25 1.11854
62 *655:19 *655:24 1.4
63 *655:18 *655:23 0.124283
64 *655:18 *756:SI 1.4
65 *655:16 *655:21 1.4
66 *655:15 *891:SI 1.4
67 *655:14 *655:19 1.11854
68 *655:13 *655:18 1.4
69 *655:12 *771:SI 1.4
70 *655:11 *655:16 0.497132
71 *655:11 *655:15 1.4
72 *655:10 *655:14 1.4
73 *655:10 *655:13 0.869982
74 *655:9 *655:12 1.4
75 *655:8 *655:11 0.248566
76 *655:8 *655:10 2.36138
77 *655:7 *655:9 0.124283
78 *655:6 *655:8 1.4
79 *655:5 *655:7 1.4
80 *655:5 *655:6 3.35563
81 *655:4 *655:5 2.23709
82 *655:3 *655:4 1.4
83 *655:2 *655:3 0.124283
84 *655:1 *655:2 1.4
85 *786:SI *655:1 1.4
*END

*D_NET *656 0.0193292

*CONN
*I *747:SI I *C 94.395 117.595 *L 0.00172 *D SDFFQX1
*I *777:SI I *C 97.005 122.815 *L 0.00172 *D SDFFQX1
*I *882:D I *C 109.475 112.375 *L 0.00181 *D SDFFQXL
*I *837:SI I *C 116.725 112.375 *L 0.00169 *D SDFFQXL
*I *732:D I *C 114.115 114.985 *L 0.00183 *D SDFFQX1
*I *822:SI I *C 106.865 107.155 *L 0.00169 *D SDFFQXL
*I *762:SI I *C 116.725 107.155 *L 0.00172 *D SDFFQX1
*I *807:SI I *C 114.405 104.545 *L 0.00172 *D SDFFQX1
*I *867:SI I *C 117.885 101.935 *L 0.00169 *D SDFFQXL
*I *1293:B1 I *C 113.535 94.105 *L 0.00171 *D AO22XL
*I *852:D I *C 112.955 91.495 *L 0.00181 *D SDFFQXL
*I *1291:B1 I *C 106.865 88.885 *L 0.00171 *D AO22XL
*I *945:Y O *C 102.225 90.915 *L 0 *D OAI21X1
*I *1284:B1 I *C 121.365 88.885 *L 0.00171 *D AO22XL
*I *897:SI I *C 87.725 94.105 *L 0.00169 *D SDFFQXL
*I *912:D I *C 87.435 96.715 *L 0.00181 *D SDFFQXL
*I *792:SI I *C 86.855 99.325 *L 0.00172 *D SDFFQX1

*CAP
1 *656:1 4.09329e-05
2 *656:2 4.09329e-05
3 *656:3 0.000225169
4 *656:4 0.000225169
5 *656:5 0.000368396
6 *656:6 0.000327463
7 *656:7 4.09329e-05
8 *656:9 0.000973545
9 *656:10 0.000973545
10 *656:11 0.000330524
11 *656:12 0.000385611
12 *656:14 5.50873e-05
13 *656:15 0.000306803
14 *656:16 0.000287628
15 *656:17 1.91752e-05
16 *656:18 5.50873e-05
17 *656:19 0.000238712
18 *656:20 0.000220349
19 *656:21 0.000238712
20 *656:22 0.000191752
21 *656:23 0.000165262
22 *656:24 0.000153402
23 *656:25 0.000210927
24 *656:26 1.91752e-05
25 *656:27 0.000153402
26 *656:28 1.91752e-05
27 *656:30 1.91752e-05
28 *656:31 3.67249e-05
29 *656:32 0.000330524
30 *656:35 3.67249e-05
31 *656:36 0.000477423
32 *656:39 1.91752e-05
33 *656:40 0.000146899
34 *656:41 1.91752e-05
35 *656:42 3.83504e-05
36 *656:44 0.000172577
37 *656:46 0.000199703
38 *656:47 0.000134226
39 *656:48 0.000222658
40 *656:49 1.83624e-05
41 *656:50 0.000373303
42 *656:51 2.29546e-05
43 *656:52 1.83624e-05
44 *656:53 0.000373303
45 *656:54 0.000109795
46 *656:56 0.000642729
47 *656:57 0.000109795
48 *656:58 0.000849321
49 *656:60 0.000153713
50 *656:61 0.000413183
51 *656:63 0.000153713
52 *656:64 0.000109795
53 *656:65 0.000229546
54 *656:67 0.000109795
55 *656:68 0.000351344
56 *656:69 2.29546e-05
57 *656:72 0.000730714
58 *656:73 0.000746607
59 *656:76 0.00037937
60 *656:77 0.000746607
61 *656:79 0.00017248
62 *656:80 2.29546e-05
63 *656:81 0.000320321
64 *656:82 2.29546e-05
65 *656:83 0.00014784
66 *656:86 5.13916e-05
67 *656:87 5.13916e-05
68 *656:88 0.0001232
69 *656:89 0.0001232
70 *656:90 0.0012334
71 *656:91 0.00125909
72 *656:93 2.56958e-05
73 *656:95 0.00022176
74 *656:96 0.000443521
75 *656:97 0.00022176
76 *656:99 5.13916e-05
77 *656:100 5.13916e-05

*RES
1 *656:101 *792:SI 1.4
2 *656:100 *656:101 1.4
3 *656:99 *656:100 0.248566
4 *656:97 *656:99 1.4
5 *656:96 *912:D 1.4
6 *656:96 *656:97 1.1186
7 *656:95 *656:96 1.1186
8 *656:93 *656:95 1.4
9 *656:92 *897:SI 1.4
10 *656:91 *656:93 0.124283
11 *656:91 *656:92 1.4
12 *656:90 *656:91 5.96558
13 *656:89 *656:90 1.4
14 *656:88 *656:89 0.621444
15 *656:87 *656:88 1.4
16 *656:86 *656:87 0.248566
17 *656:83 *656:86 1.4
18 *656:82 *1284:B1 1.4
19 *656:81 *945:Y 1.4
20 *656:81 *656:83 0.745732
21 *656:80 *656:82 0.124283
22 *656:79 *656:81 0.870021
23 *656:77 *656:80 1.4
24 *656:76 *656:79 1.4
25 *656:75 *1291:B1 1.4
26 *656:73 *656:77 4.22582
27 *656:72 *656:76 1.98858
28 *656:72 *656:75 1.4
29 *656:71 *852:D 1.4
30 *656:69 *656:73 1.4
31 *656:68 *656:72 1.98862
32 *656:67 *656:71 1.4
33 *656:66 *1293:B1 1.4
34 *656:65 *656:69 0.124283
35 *656:65 *656:68 1.4
36 *656:64 *656:67 0.621444
37 *656:63 *656:66 1.4
38 *656:61 *656:65 1.11854
39 *656:61 *656:64 1.4
40 *656:60 *656:63 0.870021
41 *656:59 *867:SI 1.4
42 *656:58 *656:61 1.11854
43 *656:58 *656:60 1.4
44 *656:57 *656:59 1.4
45 *656:56 *656:58 3.47991
46 *656:54 *656:57 0.621444
47 *656:53 *656:56 1.4
48 *656:52 *807:SI 1.4
49 *656:51 *656:54 1.4
50 *656:50 *656:53 2.11291
51 *656:49 *656:52 0.124288
52 *656:48 *656:51 0.124283
53 *656:48 *656:50 1.4
54 *656:47 *656:49 1.4
55 *656:46 *656:48 1.11855
56 *656:44 *656:47 0.869983
57 *656:44 *656:46 1.4
58 *656:43 *762:SI 1.4
59 *656:42 *656:44 0.248566
60 *656:41 *656:43 1.4
61 *656:40 *656:42 1.4
62 *656:39 *656:41 0.124283
63 *656:36 *656:40 0.994304
64 *656:36 *656:39 1.4
65 *656:35 *822:SI 1.4
66 *656:34 *732:D 1.4
67 *656:32 *656:36 2.23718
68 *656:31 *656:35 0.248576
69 *656:30 *656:34 1.4
70 *656:29 *837:SI 1.4
71 *656:28 *656:32 1.4
72 *656:27 *656:31 1.4
73 *656:26 *656:30 0.124283
74 *656:25 *656:29 1.4
75 *656:25 *656:28 0.124283
76 *656:24 *656:27 0.994266
77 *656:23 *656:26 1.4
78 *656:22 *656:25 1.24283
79 *656:21 *656:24 1.4
80 *656:20 *656:23 1.11859
81 *656:20 *656:22 1.4
82 *656:19 *656:21 1.61574
83 *656:18 *656:20 0.372864
84 *656:17 *656:19 1.4
85 *656:16 *656:18 1.4
86 *656:15 *656:17 0.124283
87 *656:15 *656:16 1.86425
88 *656:14 *656:15 1.4
89 *656:12 *656:14 0.372864
90 *656:12 *882:D 1.4
91 *656:11 *656:12 2.23718
92 *656:10 *656:11 1.4
93 *656:9 *656:10 5.34417
94 *656:7 *656:9 1.4
95 *656:6 *777:SI 1.4
96 *656:5 *656:7 0.248578
97 *656:5 *656:6 1.98862
98 *656:4 *656:5 1.4
99 *656:3 *656:4 1.11855
100 *656:2 *656:3 1.4
101 *656:1 *656:2 0.248578
102 *747:SI *656:1 1.4
*END

*D_NET *657 0.0182803

*CONN
*I *818:SI I *C 35.525 107.155 *L 0.00172 *D SDFFQX1
*I *878:D I *C 39.295 107.155 *L 0.00181 *D SDFFQXL
*I *848:D I *C 45.675 114.985 *L 0.00181 *D SDFFQXL
*I *758:SI I *C 45.095 117.595 *L 0.00172 *D SDFFQX1
*I *803:SI I *C 32.625 122.815 *L 0.00172 *D SDFFQX1
*I *728:D I *C 31.465 117.595 *L 0.00183 *D SDFFQX1
*I *833:SI I *C 46.835 120.205 *L 0.00172 *D SDFFQX1
*I *863:SI I *C 57.565 112.375 *L 0.00169 *D SDFFQXL
*I *773:SI I *C 59.305 122.815 *L 0.00172 *D SDFFQX1
*I *788:SI I *C 59.305 120.205 *L 0.00172 *D SDFFQX1
*I *743:SI I *C 57.855 104.545 *L 0.00172 *D SDFFQX1
*I *1290:B1 I *C 55.825 96.715 *L 0.00171 *D AO22XL
*I *968:Y O *C 52.345 99.905 *L 0 *D AO21X1
*I *893:SI I *C 58.435 88.885 *L 0.00169 *D SDFFQXL
*I *908:D I *C 46.255 88.885 *L 0.00181 *D SDFFQXL
*I *1338:A I *C 45.965 99.615 *L 0.00273 *D CLKINVX1

*CAP
1 *657:1 1.97822e-05
2 *657:2 1.97822e-05
3 *657:3 0.000286182
4 *657:4 0.000286182
5 *657:5 0.000474773
6 *657:6 0.000454991
7 *657:7 1.97822e-05
8 *657:8 0.000352224
9 *657:10 0.000352224
10 *657:11 5.93466e-05
11 *657:12 0.000257169
12 *657:13 0.000197822
13 *657:14 0.000132084
14 *657:15 0.000946602
15 *657:16 0.000132084
16 *657:17 8.8056e-05
17 *657:18 0.000858546
18 *657:20 3.95644e-05
19 *657:21 0.00035608
20 *657:23 1.97822e-05
21 *657:24 1.97822e-05
22 *657:25 0.000336298
23 *657:26 1.97822e-05
24 *657:27 0.000132084
25 *657:30 8.8056e-05
26 *657:31 0.000132084
27 *657:32 8.8056e-05
28 *657:33 0.000138475
29 *657:35 0.000138475
30 *657:37 0.000874185
31 *657:39 0.000874185
32 *657:40 0.000593841
33 *657:41 4.09545e-05
34 *657:42 0.00110577
35 *657:43 0.000151435
36 *657:45 0.000552886
37 *657:46 0.000151435
38 *657:47 0.000151435
39 *657:48 0.000184295
40 *657:49 2.52392e-05
41 *657:50 0.000126196
42 *657:51 0.000143341
43 *657:52 4.09545e-05
44 *657:54 0.000458467
45 *657:58 0.000458467
46 *657:59 2.62548e-05
47 *657:60 0.000341312
48 *657:61 0.000193829
49 *657:62 0.000315057
50 *657:63 0.000799543
51 *657:64 7.26857e-05
52 *657:66 0.000654172
53 *657:67 7.26857e-05
54 *657:68 0.000236293
55 *657:69 4.84572e-05
56 *657:70 0.000544264
57 *657:72 0.000236293
58 *657:73 0.000834617
59 *657:74 0.000544264
60 *657:75 4.84572e-05
61 *657:76 0.000834617
62 *657:77 2.49191e-05
63 *657:78 4.84572e-05
64 *657:80 2.49191e-05

*RES
1 *657:80 *1338:A 1.4
2 *657:79 *908:D 1.4
3 *657:78 *893:SI 1.4
4 *657:77 *657:80 0.124289
5 *657:76 *657:79 1.4
6 *657:75 *657:78 0.248577
7 *657:74 *657:77 1.4
8 *657:73 *657:76 4.10141
9 *657:72 *657:75 1.4
10 *657:70 *657:74 2.73423
11 *657:69 *657:73 1.4
12 *657:68 *657:72 1.1186
13 *657:67 *968:Y 1.4
14 *657:67 *657:70 1.4
15 *657:66 *657:69 0.248577
16 *657:66 *657:68 1.4
17 *657:64 *657:67 0.372866
18 *657:63 *657:66 3.10722
19 *657:63 *1290:B1 1.4
20 *657:62 *657:64 1.4
21 *657:61 *657:63 0.99431
22 *657:60 *657:62 1.49146
23 *657:60 *657:61 1.4
24 *657:59 *657:60 0.124289
25 *657:58 *657:59 1.4
26 *657:54 *657:58 2.36148
27 *657:53 *743:SI 1.4
28 *657:52 *788:SI 1.4
29 *657:51 *773:SI 1.4
30 *657:50 *657:54 1.4
31 *657:49 *657:53 1.4
32 *657:48 *657:52 0.248567
33 *657:48 *657:51 0.869984
34 *657:47 *657:50 0.621414
35 *657:47 *657:49 0.124283
36 *657:46 *657:48 1.4
37 *657:45 *657:47 1.4
38 *657:43 *657:46 0.745697
39 *657:42 *657:45 3.35565
40 *657:42 *863:SI 1.4
41 *657:41 *657:43 1.4
42 *657:40 *657:42 3.35565
43 *657:40 *657:41 0.248567
44 *657:39 *657:40 1.4
45 *657:37 *657:39 4.59858
46 *657:35 *833:SI 1.4
47 *657:35 *657:37 1.4
48 *657:34 *728:D 1.4
49 *657:33 *657:35 0.869982
50 *657:32 *657:34 1.4
51 *657:31 *657:33 1.4
52 *657:30 *657:32 0.497155
53 *657:27 *657:31 0.745732
54 *657:26 *657:30 1.4
55 *657:25 *803:SI 1.4
56 *657:24 *758:SI 1.4
57 *657:23 *657:27 1.4
58 *657:21 *657:26 0.124283
59 *657:21 *657:25 2.11281
60 *657:20 *657:24 0.124283
61 *657:20 *657:23 0.124283
62 *657:19 *848:D 1.4
63 *657:18 *657:21 1.4
64 *657:17 *657:20 1.4
65 *657:16 *657:19 1.4
66 *657:15 *657:18 4.84726
67 *657:15 *657:17 0.497155
68 *657:14 *657:16 0.745732
69 *657:13 *657:15 1.4
70 *657:12 *657:14 1.4
71 *657:12 *657:13 1.24283
72 *657:11 *657:12 0.37285
73 *657:10 *657:11 1.4
74 *657:8 *657:10 1.98862
75 *657:7 *878:D 1.4
76 *657:6 *657:8 1.4
77 *657:5 *657:7 0.124283
78 *657:5 *657:6 2.85851
79 *657:4 *657:5 1.4
80 *657:3 *657:4 1.61575
81 *657:2 *657:3 1.4
82 *657:1 *657:2 0.124283
83 *818:SI *657:1 1.4
*END

*D_NET *658 0.0227544

*CONN
*I *902:SI I *C 86.855 49.735 *L 0.00169 *D SDFFQXL
*I *1299:B1 I *C 97.295 54.665 *L 0.00164 *D AO22X1
*I *917:D I *C 88.885 57.565 *L 0.00181 *D SDFFQXL
*I *767:SI I *C 101.065 49.735 *L 0.00172 *D SDFFQX1
*I *887:D I *C 103.965 47.125 *L 0.00181 *D SDFFQXL
*I *737:D I *C 98.165 36.685 *L 0.00183 *D SDFFQX1
*I *752:SI I *C 109.475 52.345 *L 0.00172 *D SDFFQX1
*I *1261:B1 I *C 109.475 62.785 *L 0.00171 *D AO22XL
*I *1287:B1 I *C 118.175 57.565 *L 0.00171 *D AO22XL
*I *827:SI I *C 103.385 31.465 *L 0.00169 *D SDFFQXL
*I *812:SI I *C 109.475 28.855 *L 0.00172 *D SDFFQX1
*I *782:SI I *C 100.195 28.855 *L 0.00172 *D SDFFQX1
*I *857:D I *C 115.855 39.295 *L 0.00181 *D SDFFQXL
*I *928:Y O *C 84.245 33.205 *L 0 *D NAND2BX1
*I *797:SI I *C 85.985 28.855 *L 0.00172 *D SDFFQX1
*I *842:SI I *C 117.015 36.685 *L 0.00169 *D SDFFQXL
*I *872:SI I *C 119.625 41.905 *L 0.00169 *D SDFFQXL

*CAP
1 *658:1 4.32789e-05
2 *658:2 4.32789e-05
3 *658:3 7.65207e-05
4 *658:4 7.65207e-05
5 *658:5 0.000340059
6 *658:6 0.000340059
7 *658:7 0.000104547
8 *658:8 0.000862516
9 *658:9 0.00109775
10 *658:10 0.000234591
11 *658:11 0.000339779
12 *658:13 0.000234591
13 *658:14 0.000361699
14 *658:17 0.000383338
15 *658:18 0.000255069
16 *658:19 2.16395e-05
17 *658:20 0.000366118
18 *658:22 0.000111049
19 *658:23 0.000216395
20 *658:24 0.000142006
21 *658:25 0.000930497
22 *658:26 0.000142006
23 *658:28 0.000714102
24 *658:29 0.000270358
25 *658:30 0.000510138
26 *658:31 0.000291155
27 *658:32 0.000510138
28 *658:33 2.07968e-05
29 *658:34 0.000444577
30 *658:35 6.49184e-05
31 *658:36 2.25557e-05
32 *658:37 0.000444577
33 *658:38 0.000454429
34 *658:39 2.25557e-05
35 *658:40 2.20611e-05
36 *658:42 0.00038951
37 *658:44 0.000683893
38 *658:45 2.55069e-05
39 *658:46 0.000661832
40 *658:47 0.000471671
41 *658:48 0.000459124
42 *658:49 2.48248e-05
43 *658:50 0.000471671
44 *658:51 0.000886835
45 *658:52 0.000173116
46 *658:53 2.48248e-05
47 *658:55 0.000557202
48 *658:57 0.000194755
49 *658:59 0.000103984
50 *658:60 0.000182579
51 *658:62 0.00102028
52 *658:63 2.16395e-05
53 *658:64 0.000547738
54 *658:65 0.000182579
55 *658:66 0.00102028
56 *658:67 0.000153041
57 *658:68 0.000547738
58 *658:70 0.000324592
59 *658:71 0.000153041
60 *658:72 0.000353545
61 *658:73 0.000302953
62 *658:74 2.16395e-05
63 *658:76 0.000457529
64 *658:77 0.000229562
65 *658:78 7.65207e-05
66 *658:80 0.000207968
67 *658:82 0.000229562
68 *658:83 7.65207e-05
69 *658:84 0.000103984
70 *658:85 0.000182579
71 *658:89 0.000182579
72 *658:90 0.000182579
73 *658:93 0.000182579
74 *658:94 2.07968e-05
75 *658:95 6.23904e-05
76 *658:96 2.07968e-05
77 *658:97 6.23904e-05

*RES
1 *658:99 *872:SI 1.4
2 *658:98 *842:SI 1.4
3 *658:97 *658:99 1.4
4 *658:96 *658:98 1.4
5 *658:95 *658:97 0.372849
6 *658:94 *658:96 0.124283
7 *658:93 *658:95 1.4
8 *658:90 *658:94 1.4
9 *658:89 *658:93 1.11855
10 *658:88 *797:SI 1.4
11 *658:87 *928:Y 1.4
12 *658:85 *658:90 1.11855
13 *658:84 *658:89 1.4
14 *658:83 *658:88 1.4
15 *658:82 *658:87 1.4
16 *658:81 *857:D 1.4
17 *658:80 *658:85 1.4
18 *658:80 *658:84 0.621415
19 *658:78 *658:83 0.372866
20 *658:77 *658:82 1.1186
21 *658:76 *658:81 1.4
22 *658:76 *658:80 0.621415
23 *658:75 *782:SI 1.4
24 *658:74 *658:78 1.4
25 *658:73 *658:77 1.4
26 *658:72 *658:76 2.11281
27 *658:71 *658:75 1.4
28 *658:70 *658:74 0.124289
29 *658:70 *658:73 1.74004
30 *658:68 *658:72 1.4
31 *658:67 *658:71 0.745732
32 *658:66 *658:70 1.4
33 *658:65 *812:SI 1.4
34 *658:64 *658:68 3.35564
35 *658:63 *658:67 1.4
36 *658:62 *658:66 4.97155
37 *658:60 *658:65 1.11855
38 *658:59 *658:64 1.4
39 *658:57 *658:63 0.124289
40 *658:57 *658:62 1.4
41 *658:56 *827:SI 1.4
42 *658:55 *658:60 1.4
43 *658:55 *658:59 0.621415
44 *658:53 *1287:B1 1.4
45 *658:52 *658:57 0.99431
46 *658:51 *658:56 1.4
47 *658:51 *658:55 2.60996
48 *658:50 *1261:B1 1.4
49 *658:49 *658:53 0.124289
50 *658:48 *658:52 1.4
51 *658:48 *658:51 2.11291
52 *658:47 *658:50 2.36149
53 *658:46 *658:49 1.4
54 *658:45 *658:48 0.124289
55 *658:44 *658:47 1.4
56 *658:44 *658:46 3.72866
57 *658:42 *658:45 1.4
58 *658:40 *658:44 0.124289
59 *658:39 *752:SI 1.4
60 *658:38 *658:42 2.2372
61 *658:38 *737:D 1.4
62 *658:37 *658:40 1.4
63 *658:36 *658:39 0.124286
64 *658:35 *658:38 0.372866
65 *658:34 *658:37 2.23719
66 *658:33 *658:36 1.4
67 *658:32 *658:35 1.4
68 *658:31 *658:34 1.4
69 *658:31 *658:33 0.124283
70 *658:30 *658:32 2.48577
71 *658:29 *658:31 1.61568
72 *658:28 *658:30 1.4
73 *658:26 *658:29 1.4
74 *658:25 *658:28 4.10153
75 *658:25 *887:D 1.4
76 *658:24 *658:26 0.869982
77 *658:23 *658:25 1.24289
78 *658:22 *658:24 1.4
79 *658:20 *658:23 1.4
80 *658:20 *658:22 0.621424
81 *658:19 *767:SI 1.4
82 *658:18 *658:20 1.24289
83 *658:17 *658:19 0.124289
84 *658:17 *658:18 1.4
85 *658:14 *658:17 1.98861
86 *658:13 *917:D 1.4
87 *658:12 *1299:B1 1.4
88 *658:11 *658:14 1.4
89 *658:10 *658:13 1.24288
90 *658:9 *658:12 1.4
91 *658:9 *658:11 1.61575
92 *658:8 *658:10 1.4
93 *658:8 *658:9 3.60437
94 *658:7 *658:8 0.497155
95 *658:6 *658:7 1.4
96 *658:5 *658:6 1.86433
97 *658:4 *658:5 1.4
98 *658:3 *658:4 0.372866
99 *658:2 *658:3 1.4
100 *658:1 *658:2 0.248578
101 *902:SI *658:1 1.4
*END

*D_NET *659 0.0597396

*CONN
*I *805:SE I *C 75.835 83.955 *L 0.00381 *D SDFFQX1
*I *808:SE I *C 96.425 83.955 *L 0.00367 *D SDFFQXL
*I *807:SE I *C 114.115 104.835 *L 0.00381 *D SDFFQX1
*I *809:SE I *C 116.145 83.955 *L 0.00367 *D SDFFQXL
*I *806:SE I *C 105.415 120.495 *L 0.00367 *D SDFFQXL
*I *804:SE I *C 68.585 120.495 *L 0.00381 *D SDFFQX1
*I *803:SE I *C 32.915 122.525 *L 0.00381 *D SDFFQX1
*I *801:SE I *C 27.985 89.175 *L 0.00381 *D SDFFQX1
*I *802:SE I *C 25.085 117.305 *L 0.00381 *D SDFFQX1
*I *799:SE I *C 26.535 59.885 *L 0.00381 *D SDFFQX1
*I *800:SE I *C 24.505 36.975 *L 0.00381 *D SDFFQX1
*I *948:Y O *C 47.125 42.485 *L 0 *D AND2X1
*I *813:SE I *C 66.845 28.565 *L 0.00381 *D SDFFQX1
*I *810:SE I *C 83.375 26.535 *L 0.00367 *D SDFFQXL
*I *812:SE I *C 109.765 28.565 *L 0.00381 *D SDFFQX1
*I *811:SE I *C 110.635 33.785 *L 0.00381 *D SDFFQX1

*CAP
1 *659:2 0.00182915
2 *659:3 0.00327141
3 *659:4 0.00159597
4 *659:6 0.00164584
5 *659:7 0.000153713
6 *659:9 0.00263742
7 *659:11 0.000991571
8 *659:14 0.000575256
9 *659:15 0.00373957
10 *659:17 0.00598822
11 *659:20 0.00288995
12 *659:22 0.000138475
13 *659:23 6.6042e-05
14 *659:24 0.000138475
15 *659:25 0.000138475
16 *659:26 0.00044028
17 *659:27 0.000138475
18 *659:28 0.00044028
19 *659:30 5.93466e-05
20 *659:31 0.00226769
21 *659:32 0.000204981
22 *659:33 0.00464415
23 *659:34 0.000204981
24 *659:36 0.0024358
25 *659:37 1.7287e-05
26 *659:39 9.73524e-05
27 *659:40 1.7287e-05
28 *659:42 9.73524e-05
29 *659:44 0.00012832
30 *659:45 0.00207467
31 *659:46 2.43381e-05
32 *659:47 0.0019965
33 *659:48 2.43381e-05
34 *659:49 0.000175048
35 *659:50 5.01487e-05
36 *659:52 0.000175048
37 *659:53 0.00176509
38 *659:55 4.0171e-05
39 *659:56 0.00186596
40 *659:57 4.0171e-05
41 *659:58 0.000476413
42 *659:59 0.000100863
43 *659:61 0.000476413
44 *659:62 0.000727156
45 *659:64 0.000727156
46 *659:65 0.0016627
47 *659:66 0.00316883
48 *659:67 0.00150614
49 *659:69 0.000173116
50 *659:71 2.16395e-05
51 *659:72 0.000151476
52 *659:73 0.00220848
53 *659:74 2.55069e-05
54 *659:75 0.00222928
55 *659:76 2.55069e-05
56 *659:77 2.07968e-05
57 *659:78 2.02866e-05
58 *659:80 0.000344872
59 *659:81 2.02866e-05
60 *659:83 0.000344872
61 *659:85 4.15936e-05
62 *659:86 4.15936e-05

*RES
1 *659:87 *811:SE 1.4
2 *659:86 *659:87 1.4
3 *659:85 *659:86 0.248566
4 *659:83 *659:85 1.4
5 *659:81 *812:SE 1.4
6 *659:80 *659:83 2.11281
7 *659:79 *810:SE 1.4
8 *659:78 *659:81 0.124283
9 *659:77 *659:80 1.4
10 *659:76 *659:79 1.4
11 *659:75 *659:78 1.4
12 *659:75 *659:77 0.124283
13 *659:74 *659:76 0.124289
14 *659:73 *659:75 11.1859
15 *659:72 *659:74 1.4
16 *659:71 *659:73 1.4
17 *659:69 *659:72 0.870021
18 *659:69 *659:71 0.124289
19 *659:68 *813:SE 1.4
20 *659:67 *659:69 1.4
21 *659:66 *659:68 1.4
22 *659:66 *659:67 7.20875
23 *659:65 *659:66 7.9544
24 *659:64 *659:65 1.4
25 *659:62 *659:64 3.60437
26 *659:61 *948:Y 1.4
27 *659:59 *659:62 1.4
28 *659:58 *659:61 2.36148
29 *659:57 *800:SE 1.4
30 *659:56 *659:59 0.497132
31 *659:56 *659:58 1.4
32 *659:55 *659:57 0.248567
33 *659:53 *659:56 8.6998
34 *659:52 *659:55 1.4
35 *659:51 *799:SE 1.4
36 *659:50 *659:53 1.4
37 *659:49 *659:52 0.994264
38 *659:48 *659:51 1.4
39 *659:47 *659:50 0.248577
40 *659:47 *659:49 1.4
41 *659:46 *659:48 0.124283
42 *659:45 *659:47 9.57006
43 *659:45 *659:46 1.4
44 *659:44 *659:45 0.621413
45 *659:42 *659:44 1.4
46 *659:40 *802:SE 1.4
47 *659:39 *659:42 0.497131
48 *659:38 *801:SE 1.4
49 *659:37 *659:40 0.124288
50 *659:36 *659:39 1.4
51 *659:35 *659:38 1.4
52 *659:34 *659:37 1.4
53 *659:33 *659:36 11.9314
54 *659:33 *659:35 1.4
55 *659:32 *659:34 1.24287
56 *659:31 *659:33 12.18
57 *659:31 *659:32 1.4
58 *659:30 *659:31 0.37285
59 *659:28 *659:30 1.4
60 *659:27 *803:SE 1.4
61 *659:26 *659:28 2.48577
62 *659:25 *659:27 0.869982
63 *659:24 *659:26 1.4
64 *659:23 *659:25 1.4
65 *659:22 *659:24 0.869982
66 *659:20 *659:23 0.372866
67 *659:20 *659:22 1.4
68 *659:19 *804:SE 1.4
69 *659:17 *659:20 14.9143
70 *659:17 *659:19 1.4
71 *659:16 *806:SE 1.4
72 *659:15 *659:17 15.7839
73 *659:15 *659:16 1.4
74 *659:14 *659:15 3.7285
75 *659:11 *659:14 1.4
76 *659:10 *809:SE 1.4
77 *659:9 *807:SE 1.4
78 *659:9 *659:11 6.71155
79 *659:7 *659:10 1.4
80 *659:6 *659:9 8.94836
81 *659:5 *808:SE 1.4
82 *659:4 *659:7 0.870021
83 *659:4 *659:6 1.4
84 *659:3 *659:5 1.4
85 *659:3 *659:4 7.58145
86 *659:2 *659:3 8.82413
87 *659:1 *659:2 1.4
88 *805:SE *659:1 1.4
*END

*D_NET *660 0.0408959

*CONN
*I *894:SE I *C 80.475 101.645 *L 0.00381 *D SDFFQX1
*I *897:SE I *C 87.725 94.395 *L 0.00367 *D SDFFQXL
*I *896:SE I *C 88.595 101.645 *L 0.00381 *D SDFFQX1
*I *899:SE I *C 82.505 91.205 *L 0.00367 *D SDFFQXL
*I *895:SE I *C 67.135 89.175 *L 0.00381 *D SDFFQX1
*I *893:SE I *C 58.435 89.175 *L 0.00367 *D SDFFQXL
*I *898:SE I *C 85.695 75.545 *L 0.00367 *D SDFFQXL
*I *900:SE I *C 65.975 57.855 *L 0.00367 *D SDFFQXL
*I *901:SE I *C 91.495 44.225 *L 0.00367 *D SDFFQXL
*I *902:SE I *C 86.855 49.445 *L 0.00367 *D SDFFQXL
*I *903:SE I *C 55.535 49.445 *L 0.00381 *D SDFFQX1
*I *949:Y O *C 43.08 52.6775 *L 0 *D AND3X1
*I *890:SE I *C 11.455 47.415 *L 0.00381 *D SDFFQX1
*I *889:SE I *C 11.455 65.105 *L 0.00381 *D SDFFQX1
*I *891:SE I *C 11.455 91.205 *L 0.00381 *D SDFFQX1
*I *892:SE I *C 11.745 101.645 *L 0.00381 *D SDFFQX1

*CAP
1 *660:1 2.46401e-05
2 *660:2 2.46401e-05
3 *660:3 0.000642394
4 *660:4 0.000642394
5 *660:5 2.46401e-05
6 *660:6 0.000640641
7 *660:7 7.70873e-05
8 *660:8 0.000788482
9 *660:9 7.70873e-05
10 *660:11 0.00017248
11 *660:13 0.000359741
12 *660:15 0.000359741
13 *660:16 0.000271041
14 *660:17 0.000271041
15 *660:18 7.70873e-05
16 *660:19 0.000102783
17 *660:20 0.00119378
18 *660:21 0.00140909
19 *660:22 0.00119378
20 *660:23 0.00017248
21 *660:24 0.00217104
22 *660:25 0.000261369
23 *660:26 0.00017248
24 *660:28 0.000787643
25 *660:29 0.000365916
26 *660:33 0.000104547
27 *660:34 4.69183e-05
28 *660:36 0.00138409
29 *660:37 4.69183e-05
30 *660:38 0.00138409
31 *660:40 0.00191305
32 *660:41 2.61369e-05
33 *660:42 0.00277961
34 *660:43 0.000641388
35 *660:45 0.000892701
36 *660:46 0.000641388
37 *660:48 0.000385919
38 *660:49 0.00040811
39 *660:50 0.000385919
40 *660:51 0.000382604
41 *660:52 2.55069e-05
42 *660:53 5.25118e-05
43 *660:54 0.00041115
44 *660:55 2.16395e-05
45 *660:56 0.0011211
46 *660:57 0.00041115
47 *660:58 2.16395e-05
48 *660:59 0.000289704
49 *660:60 0.00106859
50 *660:63 0.000289704
51 *660:64 4.73455e-05
52 *660:66 7.83192e-05
53 *660:67 1.32744e-06
54 *660:68 2.96463e-05
55 *660:70 0.00244545
56 *660:71 0.00248673
57 *660:72 0.000342785
58 *660:73 4.12795e-05
59 *660:74 0.000342785
60 *660:75 0.00100087
61 *660:76 2.03652e-05
62 *660:77 0.00100087
63 *660:78 2.03652e-05
64 *660:79 2.06397e-05
65 *660:81 2.06397e-05
66 *660:84 0.00197048
67 *660:86 0.00207559
68 *660:87 0.000105111
69 *660:89 2.03807e-05
70 *660:91 2.03807e-05
71 *660:93 0.000651688
72 *660:94 0.000651688
73 *660:95 4.07614e-05
74 *660:96 4.07614e-05

*RES
1 *660:97 *892:SE 1.4
2 *660:96 *660:97 1.4
3 *660:95 *660:96 0.248566
4 *660:94 *660:95 1.4
5 *660:93 *660:94 3.85276
6 *660:91 *660:93 1.4
7 *660:90 *891:SE 1.4
8 *660:89 *660:91 0.124283
9 *660:88 *660:90 1.4
10 *660:87 *660:89 1.4
11 *660:86 *660:88 1.4
12 *660:86 *660:87 0.621413
13 *660:84 *660:86 11.1855
14 *660:83 *889:SE 1.4
15 *660:81 *660:84 1.4
16 *660:81 *660:83 1.4
17 *660:80 *890:SE 1.4
18 *660:79 *660:81 0.124283
19 *660:78 *660:80 1.4
20 *660:77 *660:79 1.4
21 *660:76 *660:78 0.124283
22 *660:75 *660:77 5.46848
23 *660:74 *660:76 1.4
24 *660:73 *660:75 1.4
25 *660:72 *660:74 2.11282
26 *660:71 *660:73 0.248566
27 *660:71 *660:72 1.4
28 *660:70 *660:71 13.4225
29 *660:68 *660:70 1.4
30 *660:67 *949:Y 1.4
31 *660:66 *660:68 0.143568
32 *660:66 *660:67 0.00642841
33 *660:64 *660:66 0.22928
34 *660:63 *903:SE 1.4
35 *660:60 *660:64 1.4
36 *660:59 *660:63 1.61569
37 *660:58 *902:SE 1.4
38 *660:57 *901:SE 1.4
39 *660:56 *660:60 5.34416
40 *660:56 *660:59 1.4
41 *660:55 *660:58 0.124289
42 *660:54 *660:57 2.36149
43 *660:53 *660:56 0.248566
44 *660:52 *660:55 1.4
45 *660:51 *660:54 1.4
46 *660:50 *660:53 1.4
47 *660:49 *660:52 0.124289
48 *660:49 *660:51 1.86433
49 *660:48 *660:50 1.98854
50 *660:46 *660:49 1.4
51 *660:45 *660:48 1.4
52 *660:44 *900:SE 1.4
53 *660:43 *660:46 3.48007
54 *660:42 *660:45 4.22562
55 *660:42 *660:44 1.4
56 *660:41 *660:43 1.4
57 *660:40 *660:42 8.94854
58 *660:40 *660:41 0.124289
59 *660:38 *660:40 1.4
60 *660:37 *898:SE 1.4
61 *660:36 *660:38 7.333
62 *660:34 *660:37 0.248576
63 *660:33 *660:36 1.4
64 *660:32 *893:SE 1.4
65 *660:29 *660:34 1.4
66 *660:29 *660:33 0.497155
67 *660:28 *660:32 1.4
68 *660:27 *895:SE 1.4
69 *660:26 *899:SE 1.4
70 *660:25 *660:29 1.24289
71 *660:24 *660:28 3.72866
72 *660:24 *660:27 1.4
73 *660:23 *660:26 0.870021
74 *660:22 *660:25 1.4
75 *660:21 *660:24 6.58722
76 *660:21 *660:23 1.4
77 *660:20 *660:22 6.09014
78 *660:19 *660:21 0.124283
79 *660:19 *660:20 1.4
80 *660:18 *660:19 0.372849
81 *660:17 *660:18 1.4
82 *660:16 *660:17 1.36718
83 *660:15 *660:16 1.4
84 *660:13 *660:15 1.73996
85 *660:12 *896:SE 1.4
86 *660:11 *660:13 1.4
87 *660:9 *660:12 1.4
88 *660:8 *660:11 0.870021
89 *660:8 *897:SE 1.4
90 *660:7 *660:9 0.372849
91 *660:6 *660:8 3.10722
92 *660:6 *660:7 1.4
93 *660:5 *660:6 0.124289
94 *660:4 *660:5 1.4
95 *660:3 *660:4 3.10707
96 *660:2 *660:3 1.4
97 *660:1 *660:2 0.124289
98 *894:SE *660:1 1.4
*END

*D_NET *661 0.0534029

*CONN
*I *732:SE I *C 112.375 115.275 *L 0.00381 *D SDFFQX1
*I *731:SE I *C 103.965 115.275 *L 0.00381 *D SDFFQX1
*I *734:SE I *C 113.245 85.985 *L 0.00381 *D SDFFQX1
*I *733:SE I *C 106.865 73.515 *L 0.00381 *D SDFFQX1
*I *735:SE I *C 78.445 49.445 *L 0.00381 *D SDFFQX1
*I *730:SE I *C 77.575 75.545 *L 0.00381 *D SDFFQX1
*I *738:SE I *C 60.755 36.975 *L 0.00381 *D SDFFQX1
*I *737:SE I *C 99.905 36.975 *L 0.00381 *D SDFFQX1
*I *954:Y O *C 51.475 36.395 *L 0 *D OR2X1
*I *736:SE I *C 103.385 39.005 *L 0.00381 *D SDFFQX1
*I *724:SE I *C 26.825 63.075 *L 0.00381 *D SDFFQX1
*I *725:SE I *C 24.795 44.225 *L 0.00381 *D SDFFQX1
*I *726:SE I *C 25.375 78.735 *L 0.00381 *D SDFFQX1
*I *727:SE I *C 24.795 115.275 *L 0.00381 *D SDFFQX1
*I *728:SE I *C 33.205 117.305 *L 0.00381 *D SDFFQX1
*I *729:SE I *C 66.845 117.305 *L 0.00381 *D SDFFQX1

*CAP
1 *661:2 3.83504e-05
2 *661:3 0.000564846
3 *661:4 0.00212325
4 *661:5 0.000526496
5 *661:6 0.00212325
6 *661:8 0.000373303
7 *661:10 0.000109795
8 *661:11 0.000263508
9 *661:12 2.29546e-05
10 *661:13 0.000842263
11 *661:14 2.29546e-05
12 *661:15 0.000842263
13 *661:17 0.000110305
14 *661:18 0.00263707
15 *661:19 0.000198598
16 *661:20 0.00252677
17 *661:21 0.000198598
18 *661:22 2.34591e-05
19 *661:24 0.00211749
20 *661:25 7.87082e-05
21 *661:26 0.00300289
22 *661:27 7.87082e-05
23 *661:29 0.000952137
24 *661:31 0.00159688
25 *661:32 4.32789e-05
26 *661:34 0.00240712
27 *661:35 0.00188751
28 *661:36 2.16089e-05
29 *661:37 0.000810247
30 *661:38 0.00191302
31 *661:39 2.16089e-05
32 *661:40 0.000702082
33 *661:41 2.55069e-05
34 *661:42 2.16395e-05
35 *661:44 0.000626859
36 *661:45 7.52231e-05
37 *661:46 0.000194755
38 *661:47 2.16395e-05
39 *661:48 0.00224177
40 *661:49 2.52156e-05
41 *661:50 0.000194755
42 *661:52 0.00224177
43 *661:53 2.52156e-05
44 *661:54 0.000280576
45 *661:55 2.00855e-05
46 *661:57 0.000280576
47 *661:58 0.00138528
48 *661:60 2.16395e-05
49 *661:61 0.00259095
50 *661:62 8.14607e-05
51 *661:63 2.16395e-05
52 *661:64 0.00373448
53 *661:65 7.11651e-05
54 *661:66 8.14607e-05
55 *661:68 0.0025433
56 *661:69 4.07614e-05
57 *661:70 7.11651e-05
58 *661:71 4.0171e-05
59 *661:72 3.4574e-05
60 *661:73 7.07313e-05
61 *661:74 4.07614e-05
62 *661:76 4.0171e-05
63 *661:77 0.000548184
64 *661:78 7.07313e-05
65 *661:82 0.000570198
66 *661:85 2.2014e-05
67 *661:86 9.89111e-05
68 *661:88 0.000118693
69 *661:89 9.89111e-05
70 *661:90 0.000118693
71 *661:92 0.00269449
72 *661:93 0.00269449
73 *661:94 2.04773e-05
74 *661:95 2.04773e-05

*RES
1 *661:95 *729:SE 1.4
2 *661:94 *661:95 0.124283
3 *661:93 *661:94 1.4
4 *661:92 *661:93 14.2929
5 *661:90 *661:92 1.4
6 *661:89 *728:SE 1.4
7 *661:88 *661:90 0.745699
8 *661:86 *661:89 0.621416
9 *661:85 *661:88 1.4
10 *661:83 *727:SE 1.4
11 *661:82 *661:86 1.4
12 *661:82 *661:85 0.124289
13 *661:79 *726:SE 1.4
14 *661:78 *661:83 1.4
15 *661:77 *661:82 3.10722
16 *661:76 *725:SE 1.4
17 *661:75 *724:SE 1.4
18 *661:74 *661:79 1.4
19 *661:73 *661:78 0.497134
20 *661:72 *661:77 1.4
21 *661:71 *661:76 0.248567
22 *661:70 *661:75 1.4
23 *661:69 *661:74 0.248566
24 *661:68 *661:73 1.4
25 *661:68 *661:72 0.248575
26 *661:66 *661:71 1.4
27 *661:65 *661:70 0.372848
28 *661:64 *661:69 1.4
29 *661:64 *661:68 15.6598
30 *661:63 *736:SE 1.4
31 *661:62 *661:66 0.497132
32 *661:61 *661:65 1.4
33 *661:61 *661:64 6.71131
34 *661:60 *661:63 0.124289
35 *661:58 *661:62 1.4
36 *661:58 *661:61 7.82986
37 *661:57 *661:60 1.4
38 *661:56 *954:Y 1.4
39 *661:55 *661:58 0.124283
40 *661:54 *661:57 1.36718
41 *661:53 *661:56 1.4
42 *661:52 *661:55 1.4
43 *661:50 *661:54 1.4
44 *661:49 *661:53 0.124283
45 *661:48 *661:52 11.0612
46 *661:47 *737:SE 1.4
47 *661:46 *661:50 1.1186
48 *661:45 *661:49 1.4
49 *661:44 *661:48 1.4
50 *661:42 *661:47 0.124289
51 *661:41 *661:46 1.4
52 *661:40 *661:45 0.372866
53 *661:40 *661:44 3.10721
54 *661:39 *738:SE 1.4
55 *661:38 *661:42 1.4
56 *661:38 *661:41 0.124289
57 *661:37 *661:40 1.4
58 *661:36 *661:39 0.124283
59 *661:35 *661:38 9.19737
60 *661:34 *661:37 3.85294
61 *661:34 *661:36 1.4
62 *661:32 *661:35 1.4
63 *661:31 *661:34 7.58161
64 *661:30 *730:SE 1.4
65 *661:29 *661:32 0.248578
66 *661:29 *661:31 1.4
67 *661:27 *661:30 1.4
68 *661:26 *661:29 5.22013
69 *661:26 *735:SE 1.4
70 *661:25 *661:27 0.372852
71 *661:24 *661:26 11.1859
72 *661:24 *661:25 1.4
73 *661:22 *661:24 0.124288
74 *661:21 *733:SE 1.4
75 *661:20 *661:22 1.4
76 *661:19 *661:21 0.99431
77 *661:18 *661:20 12.1803
78 *661:18 *661:19 1.4
79 *661:17 *661:18 0.621444
80 *661:15 *661:17 1.4
81 *661:14 *734:SE 1.4
82 *661:13 *661:15 4.47423
83 *661:12 *661:14 0.124283
84 *661:11 *661:13 1.4
85 *661:10 *661:12 1.4
86 *661:8 *661:11 1.49146
87 *661:8 *661:10 0.621444
88 *661:7 *731:SE 1.4
89 *661:6 *661:8 1.4
90 *661:5 *661:7 1.4
91 *661:4 *661:6 12.4285
92 *661:3 *661:5 3.35565
93 *661:3 *661:4 1.4
94 *661:2 *661:3 0.248566
95 *661:1 *661:2 1.4
96 *732:SE *661:1 1.4
*END

*D_NET *662 0.0564069

*CONN
*I *832:SE I *C 42.195 117.305 *L 0.00381 *D SDFFQX1
*I *833:SE I *C 47.125 120.495 *L 0.00381 *D SDFFQX1
*I *834:SE I *C 76.125 117.305 *L 0.00381 *D SDFFQX1
*I *836:SE I *C 99.905 112.085 *L 0.00367 *D SDFFQXL
*I *837:SE I *C 116.725 112.085 *L 0.00367 *D SDFFQXL
*I *839:SE I *C 119.045 83.955 *L 0.00367 *D SDFFQXL
*I *838:SE I *C 85.115 80.765 *L 0.00381 *D SDFFQX1
*I *835:SE I *C 71.195 70.325 *L 0.00381 *D SDFFQX1
*I *831:SE I *C 36.685 73.515 *L 0.00381 *D SDFFQX1
*I *829:SE I *C 36.685 63.075 *L 0.00381 *D SDFFQX1
*I *947:Y O *C 43.08 49.4025 *L 0 *D AND3X1
*I *830:SE I *C 39.005 36.975 *L 0.00381 *D SDFFQX1
*I *843:SE I *C 53.505 39.005 *L 0.00381 *D SDFFQX1
*I *840:SE I *C 77.575 36.975 *L 0.00367 *D SDFFQXL
*I *842:SE I *C 117.015 36.975 *L 0.00367 *D SDFFQXL
*I *841:SE I *C 119.335 33.785 *L 0.00367 *D SDFFQXL

*CAP
1 *662:1 1.97822e-05
2 *662:2 1.97822e-05
3 *662:3 0.000374238
4 *662:4 0.000374238
5 *662:5 1.97822e-05
6 *662:6 0.000237387
7 *662:7 0.00246748
8 *662:8 0.000217604
9 *662:9 0.00437056
10 *662:11 0.00190308
11 *662:13 0.000388863
12 *662:15 0.000388863
13 *662:16 0.000150113
14 *662:17 0.00135285
15 *662:18 0.00120274
16 *662:19 2.04665e-05
17 *662:20 0.0021049
18 *662:21 2.04665e-05
19 *662:22 1.83624e-05
20 *662:23 0.0021095
21 *662:26 0.000175672
22 *662:27 2.29546e-05
23 *662:28 0.000175672
24 *662:29 0.00246216
25 *662:31 0.00246216
26 *662:33 0.000246401
27 *662:34 0.000246401
28 *662:35 0.00017987
29 *662:36 0.00142696
30 *662:38 0.00124709
31 *662:40 0.000869242
32 *662:41 0.000869242
33 *662:43 0.00299751
34 *662:44 0.00302185
35 *662:45 0.000282303
36 *662:46 2.43381e-05
37 *662:47 0.000282303
38 *662:48 0.000641598
39 *662:49 2.43381e-05
40 *662:50 0.000641598
41 *662:51 2.43381e-05
42 *662:52 0.000535438
43 *662:54 0.000535438
44 *662:57 0.0012006
45 *662:59 0.00120406
46 *662:60 2.52156e-05
47 *662:61 4.75548e-06
48 *662:62 2.52156e-05
49 *662:63 1.29695e-06
50 *662:64 0.00105312
51 *662:66 0.00110327
52 *662:67 0.000327803
53 *662:68 5.01487e-05
54 *662:69 0.000327803
55 *662:70 0.000937335
56 *662:71 2.50744e-05
57 *662:72 0.000937335
58 *662:73 2.50744e-05
59 *662:74 2.16089e-05
60 *662:76 0.000172871
61 *662:77 0.000151262
62 *662:78 0.00217326
63 *662:80 0.005439
64 *662:81 0.00343212
65 *662:83 0.000166374
66 *662:86 0.000223152
67 *662:88 0.000223152

*RES
1 *662:88 *841:SE 1.4
2 *662:86 *662:88 1.36711
3 *662:84 *842:SE 1.4
4 *662:83 *662:86 1.4
5 *662:82 *840:SE 1.4
6 *662:81 *662:84 1.4
7 *662:81 *662:83 0.994265
8 *662:80 *662:82 1.4
9 *662:80 *662:81 16.903
10 *662:78 *662:80 10.316
11 *662:77 *843:SE 1.4
12 *662:76 *662:78 1.4
13 *662:76 *662:77 0.869984
14 *662:74 *662:76 0.124283
15 *662:73 *830:SE 1.4
16 *662:72 *662:74 1.4
17 *662:71 *662:73 0.124289
18 *662:70 *662:72 4.59849
19 *662:69 *662:71 1.4
20 *662:68 *662:70 1.4
21 *662:67 *662:69 1.61568
22 *662:66 *662:68 0.248577
23 *662:66 *662:67 1.4
24 *662:64 *662:66 5.22012
25 *662:63 *947:Y 1.4
26 *662:62 *662:64 1.4
27 *662:61 *662:63 0.00642872
28 *662:60 *662:62 0.124283
29 *662:59 *662:61 0.0171432
30 *662:59 *662:60 1.4
31 *662:57 *662:59 5.84134
32 *662:55 *829:SE 1.4
33 *662:54 *662:57 1.4
34 *662:53 *831:SE 1.4
35 *662:52 *662:55 1.4
36 *662:52 *662:54 2.73422
37 *662:51 *662:53 1.4
38 *662:50 *662:52 1.4
39 *662:49 *662:51 0.124283
40 *662:48 *662:50 3.10707
41 *662:47 *662:49 1.4
42 *662:46 *662:48 1.4
43 *662:45 *662:47 1.36711
44 *662:44 *662:46 0.124283
45 *662:44 *662:45 1.4
46 *662:43 *662:44 14.6654
47 *662:41 *662:43 1.4
48 *662:41 *835:SE 1.4
49 *662:40 *662:41 4.47425
50 *662:38 *662:40 1.4
51 *662:37 *838:SE 1.4
52 *662:36 *662:38 5.96572
53 *662:36 *662:37 1.4
54 *662:35 *662:36 0.86998
55 *662:34 *662:35 1.4
56 *662:33 *662:34 1.24289
57 *662:31 *662:33 1.4
58 *662:30 *839:SE 1.4
59 *662:29 *662:31 12.6771
60 *662:28 *662:30 1.4
61 *662:27 *662:29 1.4
62 *662:26 *662:28 0.99431
63 *662:23 *662:27 0.124283
64 *662:23 *662:26 1.4
65 *662:22 *837:SE 1.4
66 *662:21 *836:SE 1.4
67 *662:20 *662:23 11.9313
68 *662:20 *662:22 0.124288
69 *662:19 *662:21 0.124289
70 *662:18 *662:20 1.4
71 *662:17 *662:19 1.4
72 *662:17 *662:18 7.20842
73 *662:16 *662:17 0.745697
74 *662:15 *662:16 1.4
75 *662:13 *662:15 2.36149
76 *662:12 *834:SE 1.4
77 *662:11 *662:13 1.4
78 *662:9 *662:12 1.4
79 *662:9 *662:11 9.4455
80 *662:8 *833:SE 1.4
81 *662:7 *662:9 12.4284
82 *662:6 *662:8 1.36711
83 *662:6 *662:7 1.4
84 *662:5 *662:6 0.124283
85 *662:4 *662:5 1.4
86 *662:3 *662:4 2.11291
87 *662:2 *662:3 1.4
88 *662:1 *662:2 0.124283
89 *832:SE *662:1 1.4
*END

*D_NET *663 0.0548655

*CONN
*I *871:SE I *C 125.425 39.005 *L 0.00367 *D SDFFQXL
*I *872:SE I *C 119.625 42.195 *L 0.00367 *D SDFFQXL
*I *869:SE I *C 125.425 70.325 *L 0.00367 *D SDFFQXL
*I *867:SE I *C 117.885 101.645 *L 0.00367 *D SDFFQXL
*I *868:SE I *C 106.285 78.735 *L 0.00367 *D SDFFQXL
*I *866:SE I *C 100.775 110.055 *L 0.00367 *D SDFFQXL
*I *864:SE I *C 64.525 110.055 *L 0.00367 *D SDFFQXL
*I *863:SE I *C 57.565 112.085 *L 0.00367 *D SDFFQXL
*I *861:SE I *C 20.155 96.425 *L 0.00381 *D SDFFQX1
*I *862:SE I *C 41.905 115.275 *L 0.00381 *D SDFFQX1
*I *859:SE I *C 19.575 73.515 *L 0.00381 *D SDFFQX1
*I *860:SE I *C 19.575 47.415 *L 0.00381 *D SDFFQX1
*I *865:SE I *C 54.085 63.075 *L 0.00381 *D SDFFQX1
*I *946:Y O *C 42.79 44.1825 *L 0 *D AND3X1
*I *870:SE I *C 68.875 39.005 *L 0.00367 *D SDFFQXL
*I *873:SE I *C 54.955 39.005 *L 0.00381 *D SDFFQX1

*CAP
1 *663:2 6.23904e-05
2 *663:3 6.23904e-05
3 *663:4 0.000223152
4 *663:5 0.000223152
5 *663:6 0.000415936
6 *663:7 6.23904e-05
7 *663:8 0.000353545
8 *663:9 0.00225144
9 *663:11 0.00287206
10 *663:13 0.00062062
11 *663:15 0.000573587
12 *663:16 0.000573587
13 *663:17 9.64939e-05
14 *663:18 0.00190991
15 *663:19 0.00181341
16 *663:20 0.000878361
17 *663:22 0.00113673
18 *663:23 0.000878361
19 *663:24 0.00113673
20 *663:26 0.000633177
21 *663:28 0.000633177
22 *663:29 0.00020015
23 *663:30 0.00333797
24 *663:32 0.0037688
25 *663:35 0.000630981
26 *663:37 0.000143341
27 *663:38 0.000163818
28 *663:39 2.04773e-05
29 *663:40 2.52392e-05
30 *663:41 0.00122318
31 *663:42 2.52392e-05
32 *663:43 0.0012452
33 *663:45 0.00112961
34 *663:46 2.2014e-05
35 *663:48 0.00112961
36 *663:49 0.000197822
37 *663:50 0.00176417
38 *663:51 0.000197822
39 *663:52 0.00176417
40 *663:53 2.2014e-05
41 *663:54 8.40888e-05
42 *663:55 2.2014e-05
43 *663:56 0.0017733
44 *663:59 0.00168921
45 *663:61 4.12795e-05
46 *663:62 4.12795e-05
47 *663:63 0.00200332
48 *663:65 0.00214392
49 *663:67 0.000140599
50 *663:68 0.00170639
51 *663:69 0.00170639
52 *663:70 2.50744e-05
53 *663:71 2.50744e-05
54 *663:72 0.000201725
55 *663:73 0.00119143
56 *663:74 0.00109444
57 *663:75 7.86816e-05
58 *663:76 0.000104735
59 *663:77 0.00143392
60 *663:78 7.99785e-05
61 *663:79 0.000453787
62 *663:80 0.00143392
63 *663:81 1.29695e-06
64 *663:82 0.000453787
65 *663:85 0.00125682
66 *663:86 0.00123064
67 *663:87 2.61838e-05

*RES
1 *663:89 *873:SE 1.4
2 *663:88 *870:SE 1.4
3 *663:87 *663:89 1.4
4 *663:86 *663:88 1.4
5 *663:85 *663:87 0.124289
6 *663:85 *663:86 5.84157
7 *663:82 *663:85 1.4
8 *663:81 *946:Y 1.4
9 *663:80 *865:SE 1.4
10 *663:79 *663:82 2.60995
11 *663:78 *663:81 0.00642872
12 *663:77 *663:80 7.70558
13 *663:76 *663:79 1.4
14 *663:75 *663:78 0.390009
15 *663:74 *663:77 1.4
16 *663:74 *663:76 0.497155
17 *663:73 *663:75 1.4
18 *663:73 *663:74 4.84707
19 *663:72 *663:73 0.994263
20 *663:71 *663:72 1.4
21 *663:70 *663:71 0.124289
22 *663:69 *663:70 1.4
23 *663:68 *663:69 8.94837
24 *663:67 *663:68 1.4
25 *663:65 *663:67 0.869983
26 *663:65 *860:SE 1.4
27 *663:63 *663:65 11.1855
28 *663:63 *859:SE 1.4
29 *663:62 *663:63 1.4
30 *663:61 *663:62 0.248566
31 *663:59 *663:61 1.4
32 *663:57 *862:SE 1.4
33 *663:56 *663:59 9.81835
34 *663:56 *861:SE 1.4
35 *663:55 *663:57 1.4
36 *663:54 *663:56 0.497131
37 *663:53 *663:55 0.124289
38 *663:52 *663:54 1.4
39 *663:51 *663:53 1.4
40 *663:50 *663:52 9.32122
41 *663:49 *663:51 1.24283
42 *663:48 *663:50 1.4
43 *663:46 *663:49 1.4
44 *663:45 *663:48 6.33857
45 *663:44 *863:SE 1.4
46 *663:43 *663:46 0.124289
47 *663:43 *663:45 1.4
48 *663:42 *663:44 1.4
49 *663:41 *663:43 6.5872
50 *663:40 *663:42 0.124283
51 *663:39 *663:41 1.4
52 *663:38 *663:40 1.4
53 *663:38 *663:39 0.124283
54 *663:37 *663:38 0.869984
55 *663:35 *663:37 1.4
56 *663:34 *864:SE 1.4
57 *663:32 *663:35 3.10707
58 *663:32 *663:34 1.4
59 *663:31 *866:SE 1.4
60 *663:30 *663:32 15.5354
61 *663:30 *663:31 1.4
62 *663:29 *663:30 0.994263
63 *663:28 *663:29 1.4
64 *663:26 *663:28 3.60437
65 *663:25 *868:SE 1.4
66 *663:24 *663:26 1.4
67 *663:23 *663:25 1.4
68 *663:22 *663:24 6.3387
69 *663:20 *663:23 4.97155
70 *663:19 *663:22 1.4
71 *663:19 *867:SE 1.4
72 *663:18 *663:20 1.4
73 *663:18 *663:19 9.81833
74 *663:17 *663:18 0.497146
75 *663:16 *663:17 1.4
76 *663:15 *663:16 3.23151
77 *663:13 *663:15 1.4
78 *663:11 *869:SE 1.4
79 *663:11 *663:13 3.10722
80 *663:10 *872:SE 1.4
81 *663:9 *663:11 12.0558
82 *663:8 *663:10 1.4
83 *663:7 *663:9 1.4
84 *663:6 *663:8 2.11281
85 *663:6 *663:7 0.372849
86 *663:5 *663:6 1.4
87 *663:4 *663:5 1.36711
88 *663:3 *663:4 1.4
89 *663:2 *663:3 0.372849
90 *663:1 *663:2 1.4
91 *871:SE *663:1 1.4
*END

*D_NET *664 0.0505312

*CONN
*I *747:SE I *C 94.685 117.305 *L 0.00381 *D SDFFQX1
*I *746:SE I *C 86.565 120.495 *L 0.00381 *D SDFFQX1
*I *744:SE I *C 77.575 120.495 *L 0.00381 *D SDFFQX1
*I *743:SE I *C 57.565 104.835 *L 0.00381 *D SDFFQX1
*I *742:SE I *C 21.025 99.615 *L 0.00381 *D SDFFQX1
*I *741:SE I *C 22.765 80.765 *L 0.00381 *D SDFFQX1
*I *739:SE I *C 23.635 70.325 *L 0.00381 *D SDFFQX1
*I *740:SE I *C 27.695 47.415 *L 0.00381 *D SDFFQX1
*I *942:Y O *C 41.035 42.485 *L 0 *D AND2X1
*I *745:SE I *C 51.185 68.295 *L 0.00381 *D SDFFQX1
*I *753:SE I *C 63.075 47.415 *L 0.00381 *D SDFFQX1
*I *752:SE I *C 109.765 52.635 *L 0.00381 *D SDFFQX1
*I *750:SE I *C 77.575 39.005 *L 0.00381 *D SDFFQX1
*I *748:SE I *C 109.185 65.105 *L 0.00381 *D SDFFQX1
*I *751:SE I *C 111.505 42.195 *L 0.00381 *D SDFFQX1
*I *749:SE I *C 111.505 68.295 *L 0.00381 *D SDFFQX1

*CAP
1 *664:1 0.000245598
2 *664:2 0.000245598
3 *664:3 0.000700526
4 *664:4 0.00147666
5 *664:5 2.04665e-05
6 *664:6 0.000776133
7 *664:7 2.04665e-05
8 *664:8 2.04773e-05
9 *664:10 0.0010853
10 *664:12 0.00106482
11 *664:13 0.00174151
12 *664:14 0.00176675
13 *664:15 4.09545e-05
14 *664:16 2.52392e-05
15 *664:17 4.09545e-05
16 *664:18 0.000422985
17 *664:20 0.000422985
18 *664:21 0.00285606
19 *664:22 0.00285606
20 *664:23 2.10222e-05
21 *664:24 0.00140849
22 *664:25 0.000183426
23 *664:26 0.00138747
24 *664:27 0.000183426
25 *664:28 6.11421e-05
26 *664:29 2.10222e-05
27 *664:30 6.11421e-05
28 *664:31 2.10222e-05
29 *664:32 0.000804232
30 *664:35 0.00253725
31 *664:36 6.19192e-05
32 *664:37 0.00173302
33 *664:38 6.19192e-05
34 *664:39 0.000372886
35 *664:41 0.00158324
36 *664:43 0.00121035
37 *664:44 2.50744e-05
38 *664:45 0.000476413
39 *664:46 2.50744e-05
40 *664:47 2.50744e-05
41 *664:48 0.000451338
42 *664:50 0.000832116
43 *664:51 5.04313e-05
44 *664:52 0.000832116
45 *664:53 5.04313e-05
46 *664:54 0.00186315
47 *664:56 0.00178793
48 *664:57 7.52231e-05
49 *664:60 0.00107015
50 *664:61 0.00237934
51 *664:62 0.00130919
52 *664:63 2.16089e-05
53 *664:64 0.000367351
54 *664:65 2.16089e-05
55 *664:66 0.000367351
56 *664:68 2.61838e-05
57 *664:69 0.00274582
58 *664:70 0.00271964
59 *664:71 0.000237698
60 *664:72 0.000757411
61 *664:73 0.000237698
62 *664:74 0.00180459
63 *664:75 2.02866e-05
64 *664:76 2.61838e-05
65 *664:77 0.00136536
66 *664:79 0.000124781
67 *664:80 2.61838e-05
68 *664:81 0.000297898
69 *664:82 4.41221e-05
70 *664:83 0.000124781
71 *664:85 0.000132366
72 *664:86 4.41221e-05
73 *664:87 2.02866e-05
74 *664:89 0.000132366
75 *664:91 2.02866e-05
76 *664:92 2.48248e-05
77 *664:95 2.48248e-05

*RES
1 *664:95 *749:SE 1.4
2 *664:92 *664:95 0.124289
3 *664:91 *751:SE 1.4
4 *664:90 *748:SE 1.4
5 *664:89 *664:92 1.4
6 *664:87 *664:91 0.124283
7 *664:86 *664:90 1.4
8 *664:85 *664:89 0.745732
9 *664:84 *750:SE 1.4
10 *664:83 *664:87 1.4
11 *664:82 *664:86 0.248578
12 *664:81 *664:85 1.4
13 *664:80 *664:84 1.4
14 *664:79 *664:83 0.745698
15 *664:77 *664:82 1.4
16 *664:77 *664:81 1.49146
17 *664:76 *664:80 0.124289
18 *664:75 *664:79 1.4
19 *664:74 *752:SE 1.4
20 *664:74 *664:77 5.34442
21 *664:73 *664:76 1.4
22 *664:72 *664:75 0.124283
23 *664:72 *664:74 4.4742
24 *664:71 *664:73 1.36712
25 *664:70 *664:72 1.4
26 *664:69 *664:71 1.4
27 *664:69 *664:70 13.6717
28 *664:68 *664:69 0.124289
29 *664:66 *664:68 1.4
30 *664:65 *753:SE 1.4
31 *664:64 *664:66 2.11282
32 *664:63 *664:65 0.124283
33 *664:62 *664:64 1.4
34 *664:61 *664:63 1.4
35 *664:61 *664:62 6.21444
36 *664:60 *664:61 5.09582
37 *664:57 *664:60 1.4
38 *664:56 *745:SE 1.4
39 *664:55 *942:Y 1.4
40 *664:54 *664:57 0.372866
41 *664:54 *664:56 8.69987
42 *664:53 *664:55 1.4
43 *664:52 *664:54 1.4
44 *664:51 *664:53 0.248566
45 *664:50 *664:52 4.10134
46 *664:48 *664:51 1.4
47 *664:47 *664:50 1.4
48 *664:46 *740:SE 1.4
49 *664:45 *664:48 2.23719
50 *664:45 *664:47 0.124289
51 *664:44 *664:46 0.124289
52 *664:43 *664:45 1.4
53 *664:41 *664:44 1.4
54 *664:41 *664:43 5.96558
55 *664:40 *739:SE 1.4
56 *664:39 *664:41 2.11281
57 *664:38 *664:40 1.4
58 *664:37 *664:39 1.4
59 *664:36 *664:38 0.372849
60 *664:35 *664:37 9.69411
61 *664:35 *664:36 1.4
62 *664:32 *664:35 4.4742
63 *664:32 *741:SE 1.4
64 *664:31 *742:SE 1.4
65 *664:30 *664:32 1.4
66 *664:29 *664:31 0.124283
67 *664:28 *664:30 0.372849
68 *664:27 *664:29 1.4
69 *664:26 *664:28 1.4
70 *664:25 *664:27 1.11855
71 *664:24 *664:26 8.20266
72 *664:24 *664:25 1.4
73 *664:23 *664:24 0.124283
74 *664:22 *664:23 1.4
75 *664:21 *664:22 14.4169
76 *664:20 *664:21 1.4
77 *664:18 *664:20 2.23718
78 *664:17 *743:SE 1.4
79 *664:16 *664:18 1.4
80 *664:15 *664:17 0.248567
81 *664:14 *664:16 0.124283
82 *664:14 *664:15 1.4
83 *664:13 *664:14 8.57552
84 *664:12 *664:13 1.4
85 *664:10 *664:12 6.46274
86 *664:10 *744:SE 1.4
87 *664:8 *664:10 0.124283
88 *664:7 *746:SE 1.4
89 *664:6 *664:8 1.4
90 *664:5 *664:7 0.124289
91 *664:4 *664:6 3.85277
92 *664:4 *664:5 1.4
93 *664:3 *664:4 3.47992
94 *664:2 *664:3 1.4
95 *664:1 *664:2 1.49146
96 *747:SE *664:1 1.4
*END

*D_NET *665 0.0373673

*CONN
*I *905:SE I *C 11.455 57.855 *L 0.00367 *D SDFFQXL
*I *904:SE I *C 11.455 70.325 *L 0.00367 *D SDFFQXL
*I *908:SE I *C 44.805 89.175 *L 0.00367 *D SDFFQXL
*I *906:SE I *C 11.455 94.395 *L 0.00367 *D SDFFQXL
*I *907:SE I *C 11.455 96.425 *L 0.00367 *D SDFFQXL
*I *934:Y O *C 52.635 83.375 *L 0 *D OR2X1
*I *910:SE I *C 66.265 83.955 *L 0.00367 *D SDFFQXL
*I *914:SE I *C 83.375 83.955 *L 0.00367 *D SDFFQXL
*I *916:SE I *C 87.145 54.665 *L 0.00367 *D SDFFQXL
*I *913:SE I *C 86.565 70.325 *L 0.00367 *D SDFFQXL
*I *917:SE I *C 87.435 57.855 *L 0.00367 *D SDFFQXL
*I *915:SE I *C 68.585 54.665 *L 0.00367 *D SDFFQXL
*I *912:SE I *C 88.885 96.425 *L 0.00367 *D SDFFQXL
*I *918:SE I *C 56.695 57.855 *L 0.00367 *D SDFFQXL
*I *911:SE I *C 88.885 104.835 *L 0.00367 *D SDFFQXL
*I *909:SE I *C 77.285 106.865 *L 0.00367 *D SDFFQXL

*CAP
1 *665:2 2.06397e-05
2 *665:3 2.06397e-05
3 *665:4 0.000978123
4 *665:5 0.000978123
5 *665:6 2.06397e-05
6 *665:7 6.19192e-05
7 *665:9 4.12795e-05
8 *665:11 0.00141388
9 *665:12 0.00141388
10 *665:13 0.0026634
11 *665:14 0.00325629
12 *665:15 0.0003784
13 *665:16 0.000592897
14 *665:18 0.0003784
15 *665:19 0.000423624
16 *665:21 4.07614e-05
17 *665:22 0.000423624
18 *665:23 4.07614e-05
19 *665:24 7.64382e-05
20 *665:25 0.000147155
21 *665:26 0.00131041
22 *665:27 0.000147155
23 *665:29 0.00277322
24 *665:30 7.26857e-05
25 *665:32 0.00187329
26 *665:33 2.42286e-05
27 *665:34 7.26857e-05
28 *665:35 0.000334045
29 *665:36 2.46401e-05
30 *665:37 2.42286e-05
31 *665:39 0.00117489
32 *665:40 2.46401e-05
33 *665:42 2.46401e-05
34 *665:43 0.00215899
35 *665:45 0.00017987
36 *665:46 5.22737e-05
37 *665:47 0.00126679
38 *665:48 0.00017987
39 *665:49 5.22737e-05
40 *665:50 2.61369e-05
41 *665:51 0.00025805
42 *665:52 0.00101024
43 *665:54 2.61369e-05
44 *665:56 0.00167675
45 *665:57 0.00171854
46 *665:60 0.00275324
47 *665:61 0.0008311
48 *665:62 2.56958e-05
49 *665:65 0.00107649
50 *665:66 0.000122799
51 *665:67 2.50188e-05
52 *665:68 2.56958e-05
53 *665:70 0.00026532
54 *665:71 0.00102654
55 *665:72 2.50188e-05
56 *665:74 0.00026532
57 *665:75 0.00102654
58 *665:79 2.04773e-05
59 *665:81 2.04773e-05

*RES
1 *665:81 *909:SE 1.4
2 *665:79 *665:81 0.124283
3 *665:76 *911:SE 1.4
4 *665:75 *665:79 1.4
5 *665:74 *918:SE 1.4
6 *665:73 *912:SE 1.4
7 *665:72 *665:76 1.4
8 *665:71 *665:75 5.0956
9 *665:70 *665:74 1.36712
10 *665:68 *665:73 1.4
11 *665:67 *665:72 0.124283
12 *665:66 *665:71 1.4
13 *665:65 *665:70 1.4
14 *665:64 *915:SE 1.4
15 *665:62 *665:68 0.124283
16 *665:61 *665:67 1.4
17 *665:61 *665:66 0.745732
18 *665:60 *665:65 5.0956
19 *665:60 *665:64 1.4
20 *665:59 *917:SE 1.4
21 *665:57 *665:62 1.4
22 *665:57 *665:61 3.60437
23 *665:56 *665:60 7.95428
24 *665:54 *665:59 1.4
25 *665:53 *913:SE 1.4
26 *665:52 *665:57 5.09584
27 *665:51 *665:56 1.4
28 *665:51 *916:SE 1.4
29 *665:50 *665:54 0.124289
30 *665:49 *665:53 1.4
31 *665:48 *665:52 1.4
32 *665:47 *665:51 1.36717
33 *665:47 *665:50 1.4
34 *665:46 *665:49 0.248578
35 *665:45 *665:48 0.86998
36 *665:43 *665:47 5.34439
37 *665:43 *665:46 1.4
38 *665:42 *665:45 1.4
39 *665:40 *914:SE 1.4
40 *665:39 *665:43 5.96584
41 *665:39 *665:42 0.124289
42 *665:37 *910:SE 1.4
43 *665:36 *665:40 0.124289
44 *665:35 *665:39 1.4
45 *665:34 *934:Y 1.4
46 *665:33 *665:37 0.124289
47 *665:32 *665:36 1.4
48 *665:32 *665:35 1.61568
49 *665:30 *665:34 0.372866
50 *665:29 *665:33 1.4
51 *665:29 *665:32 7.33293
52 *665:27 *907:SE 1.4
53 *665:26 *665:30 1.4
54 *665:26 *665:29 5.84157
55 *665:25 *906:SE 1.4
56 *665:25 *665:27 0.869979
57 *665:24 *665:26 0.372857
58 *665:23 *665:25 1.4
59 *665:22 *665:24 1.4
60 *665:21 *665:23 0.248566
61 *665:19 *665:22 2.11291
62 *665:18 *665:21 1.4
63 *665:17 *908:SE 1.4
64 *665:16 *665:19 1.4
65 *665:15 *665:18 2.23709
66 *665:14 *665:17 1.4
67 *665:14 *665:16 2.98279
68 *665:13 *665:15 1.4
69 *665:13 *665:14 14.5411
70 *665:12 *665:13 1.4
71 *665:11 *665:12 8.0784
72 *665:9 *665:11 1.4
73 *665:8 *904:SE 1.4
74 *665:7 *665:9 0.248566
75 *665:7 *665:8 1.4
76 *665:6 *665:7 0.124283
77 *665:5 *665:6 1.4
78 *665:4 *665:5 5.34419
79 *665:3 *665:4 1.4
80 *665:2 *665:3 0.124283
81 *665:1 *665:2 1.4
82 *905:SE *665:1 1.4
*END

*D_NET *666 0.0530714

*CONN
*I *762:SE I *C 116.435 106.865 *L 0.00381 *D SDFFQX1
*I *759:SE I *C 74.095 115.275 *L 0.00381 *D SDFFQX1
*I *761:SE I *C 103.095 117.305 *L 0.00381 *D SDFFQX1
*I *758:SE I *C 44.805 117.305 *L 0.00381 *D SDFFQX1
*I *757:SE I *C 20.155 106.865 *L 0.00381 *D SDFFQX1
*I *756:SE I *C 19.575 91.205 *L 0.00381 *D SDFFQX1
*I *755:SE I *C 19.865 57.855 *L 0.00381 *D SDFFQX1
*I *754:SE I *C 19.285 65.105 *L 0.00381 *D SDFFQX1
*I *768:SE I *C 63.655 49.445 *L 0.00381 *D SDFFQX1
*I *950:Y O *C 37.86 49.4025 *L 0 *D AND3X1
*I *760:SE I *C 65.685 68.295 *L 0.00381 *D SDFFQX1
*I *765:SE I *C 76.995 49.445 *L 0.00381 *D SDFFQX1
*I *767:SE I *C 101.355 49.445 *L 0.00381 *D SDFFQX1
*I *766:SE I *C 125.715 52.635 *L 0.00381 *D SDFFQX1
*I *763:SE I *C 117.595 65.105 *L 0.00381 *D SDFFQX1
*I *764:SE I *C 126.005 68.295 *L 0.00381 *D SDFFQX1

*CAP
1 *666:1 1.83624e-05
2 *666:2 1.83624e-05
3 *666:3 0.000933374
4 *666:4 0.000933374
5 *666:5 0.000573061
6 *666:6 0.000573061
7 *666:7 0.00250507
8 *666:8 2.50188e-05
9 *666:9 0.00503503
10 *666:10 0.000143265
11 *666:12 0.00255498
12 *666:13 0.000143265
13 *666:15 0.000633031
14 *666:17 0.000138475
15 *666:18 0.000494555
16 *666:19 8.8056e-05
17 *666:20 0.00167666
18 *666:21 8.8056e-05
19 *666:22 0.00167666
20 *666:24 6.9148e-05
21 *666:26 0.00119362
22 *666:27 1.76828e-05
23 *666:28 0.00112447
24 *666:29 1.76828e-05
25 *666:30 6.11421e-05
26 *666:32 6.11421e-05
27 *666:34 2.10222e-05
28 *666:35 0.0019722
29 *666:36 2.10222e-05
30 *666:37 0.0019722
31 *666:39 4.12795e-05
32 *666:40 2.06397e-05
33 *666:41 2.06397e-05
34 *666:42 0.000545929
35 *666:43 2.2747e-05
36 *666:44 0.000545929
37 *666:45 2.2747e-05
38 *666:46 0.00138077
39 *666:49 0.00138077
40 *666:50 0.000713579
41 *666:51 0.000713579
42 *666:52 5.04313e-05
43 *666:53 0.00233287
44 *666:54 0.00243954
45 *666:55 2.85329e-05
46 *666:56 0.000157103
47 *666:57 2.16089e-05
48 *666:58 2.98298e-05
49 *666:59 0.00154394
50 *666:60 2.16089e-05
51 *666:61 1.29695e-06
52 *666:62 0.00152233
53 *666:63 2.16089e-05
54 *666:66 2.62559e-05
55 *666:67 0.00104735
56 *666:68 2.62559e-05
57 *666:69 0.00319298
58 *666:71 0.00229867
59 *666:74 0.000153041
60 *666:77 0.000240764
61 *666:79 0.000240764
62 *666:80 0.00169498
63 *666:81 0.0017391
64 *666:82 4.41221e-05
65 *666:83 0.00106747
66 *666:85 0.00106747
67 *666:87 2.20611e-05
68 *666:88 0.000573587
69 *666:89 0.000273073
70 *666:90 0.000551526
71 *666:91 0.000273073
72 *666:93 8.82442e-05
73 *666:95 8.82442e-05

*RES
1 *666:96 *764:SE 1.4
2 *666:95 *666:96 1.4
3 *666:93 *666:95 0.497155
4 *666:92 *763:SE 1.4
5 *666:91 *666:93 1.4
6 *666:90 *666:92 1.4
7 *666:89 *666:91 1.36718
8 *666:88 *666:90 3.10722
9 *666:88 *666:89 1.4
10 *666:87 *666:88 0.124289
11 *666:85 *666:87 1.4
12 *666:84 *766:SE 1.4
13 *666:83 *666:85 5.34442
14 *666:82 *666:84 1.4
15 *666:81 *666:83 1.4
16 *666:81 *666:82 0.248578
17 *666:80 *666:81 9.44594
18 *666:79 *666:80 1.4
19 *666:77 *666:79 1.36718
20 *666:75 *767:SE 1.4
21 *666:74 *666:77 1.4
22 *666:72 *765:SE 1.4
23 *666:71 *666:75 1.4
24 *666:71 *666:74 0.745732
25 *666:70 *760:SE 1.4
26 *666:69 *666:72 1.4
27 *666:69 *666:71 10.4403
28 *666:68 *666:70 1.4
29 *666:67 *666:69 4.97155
30 *666:66 *666:68 0.124283
31 *666:63 *666:67 1.4
32 *666:62 *666:66 1.4
33 *666:61 *950:Y 1.4
34 *666:60 *768:SE 1.4
35 *666:59 *666:63 0.124283
36 *666:59 *666:62 7.95415
37 *666:58 *666:61 0.00642872
38 *666:57 *666:60 0.124283
39 *666:56 *666:59 1.4
40 *666:55 *666:58 0.141432
41 *666:54 *666:57 1.4
42 *666:54 *666:56 0.745732
43 *666:53 *666:55 1.4
44 *666:53 *666:54 11.0614
45 *666:52 *666:53 0.248566
46 *666:51 *666:52 1.4
47 *666:50 *666:51 3.47996
48 *666:49 *666:50 1.4
49 *666:46 *666:49 7.45697
50 *666:45 *754:SE 1.4
51 *666:44 *755:SE 1.4
52 *666:44 *666:46 1.4
53 *666:43 *666:45 0.124284
54 *666:42 *666:44 2.98281
55 *666:41 *666:43 1.4
56 *666:40 *666:42 1.4
57 *666:39 *666:41 0.124283
58 *666:39 *666:40 0.124283
59 *666:37 *666:39 1.4
60 *666:36 *756:SE 1.4
61 *666:35 *666:37 11.1855
62 *666:34 *666:36 0.124283
63 *666:32 *666:35 1.4
64 *666:32 *666:34 1.4
65 *666:31 *757:SE 1.4
66 *666:30 *666:32 0.372849
67 *666:29 *666:31 1.4
68 *666:28 *666:30 1.4
69 *666:27 *666:29 0.124284
70 *666:26 *666:28 6.83559
71 *666:26 *666:27 1.4
72 *666:24 *666:26 0.497151
73 *666:23 *758:SE 1.4
74 *666:22 *666:24 1.4
75 *666:21 *666:23 1.4
76 *666:20 *666:22 9.943
77 *666:19 *666:21 0.497155
78 *666:18 *666:20 1.4
79 *666:17 *666:19 1.4
80 *666:15 *666:18 3.10708
81 *666:15 *666:17 0.869982
82 *666:13 *761:SE 1.4
83 *666:12 *666:15 1.4
84 *666:11 *759:SE 1.4
85 *666:10 *666:13 0.870021
86 *666:9 *666:12 13.0499
87 *666:9 *666:11 1.4
88 *666:8 *666:10 1.4
89 *666:7 *666:9 12.304
90 *666:7 *666:8 0.124283
91 *666:6 *666:7 1.4
92 *666:5 *666:6 3.48009
93 *666:4 *666:5 1.4
94 *666:3 *666:4 5.84131
95 *666:2 *666:3 1.4
96 *666:1 *666:2 0.124288
97 *762:SE *666:1 1.4
*END

*D_NET *667 0.0525872

*CONN
*I *884:SE I *C 105.705 70.325 *L 0.00367 *D SDFFQXL
*I *883:SE I *C 97.585 65.105 *L 0.00367 *D SDFFQXL
*I *886:SE I *C 109.765 49.445 *L 0.00367 *D SDFFQXL
*I *887:SE I *C 105.415 47.415 *L 0.00367 *D SDFFQXL
*I *885:SE I *C 70.905 47.415 *L 0.00367 *D SDFFQXL
*I *880:SE I *C 69.165 78.735 *L 0.00367 *D SDFFQXL
*I *888:SE I *C 59.885 54.665 *L 0.00367 *D SDFFQXL
*I *878:SE I *C 37.845 106.865 *L 0.00367 *D SDFFQXL
*I *935:Y O *C 47.995 81.345 *L 0 *D OR2X1
*I *876:SE I *C 19.285 89.175 *L 0.00367 *D SDFFQXL
*I *881:SE I *C 97.295 112.085 *L 0.00367 *D SDFFQXL
*I *879:SE I *C 65.685 112.085 *L 0.00367 *D SDFFQXL
*I *877:SE I *C 18.995 112.085 *L 0.00367 *D SDFFQXL
*I *882:SE I *C 108.025 112.085 *L 0.00367 *D SDFFQXL
*I *874:SE I *C 18.125 59.885 *L 0.00381 *D SDFFQX1
*I *875:SE I *C 18.705 52.635 *L 0.00381 *D SDFFQX1

*CAP
1 *667:2 6.61832e-05
2 *667:3 6.61832e-05
3 *667:4 0.000446846
4 *667:5 0.000446846
5 *667:6 0.000669369
6 *667:7 2.20611e-05
7 *667:8 0.000647308
8 *667:9 0.00129743
9 *667:11 0.00129743
10 *667:13 4.15936e-05
11 *667:14 0.000332749
12 *667:15 0.000291155
13 *667:16 0.000142006
14 *667:18 0.000142006
15 *667:20 2.07968e-05
16 *667:21 0.0030569
17 *667:23 0.0030361
18 *667:25 0.000489207
19 *667:26 0.000489207
20 *667:28 0.000157535
21 *667:29 0.000157535
22 *667:30 9.64799e-05
23 *667:31 0.00207448
24 *667:32 0.00205069
25 *667:33 0.000840189
26 *667:34 7.26857e-05
27 *667:36 0.000840189
28 *667:37 0.000315057
29 *667:38 2.412e-05
30 *667:39 0.000315057
31 *667:40 2.412e-05
32 *667:41 0.00234251
33 *667:43 0.0022456
34 *667:44 9.69143e-05
35 *667:45 0.00228856
36 *667:46 0.00157906
37 *667:47 2.52392e-05
38 *667:48 0.00357043
39 *667:49 0.00157906
40 *667:50 0.000389068
41 *667:52 0.00130711
42 *667:53 0.000249191
43 *667:54 0.000389068
44 *667:56 0.0012506
45 *667:57 0.000311166
46 *667:58 0.000249191
47 *667:59 0.00273664
48 *667:60 0.00136623
49 *667:61 0.000311166
50 *667:63 0.00356405
51 *667:64 2.52392e-05
52 *667:66 0.000115622
53 *667:67 1.76828e-05
54 *667:68 0.00085265
55 *667:69 2.04665e-05
56 *667:70 2.04773e-05
57 *667:73 1.76828e-05
58 *667:74 1.83624e-05
59 *667:75 2.04665e-05
60 *667:76 2.04773e-05
61 *667:78 0.00211715
62 *667:80 1.83624e-05
63 *667:83 0.00268582
64 *667:86 8.25589e-05
65 *667:87 0.000568676
66 *667:88 8.25589e-05
67 *667:89 4.12795e-05
68 *667:91 4.12795e-05

*RES
1 *667:93 *875:SE 1.4
2 *667:91 *667:93 1.4
3 *667:90 *874:SE 1.4
4 *667:89 *667:91 0.248566
5 *667:88 *667:90 1.4
6 *667:87 *667:89 1.4
7 *667:86 *667:88 0.497132
8 *667:83 *667:87 3.10709
9 *667:83 *667:86 1.4
10 *667:80 *882:SE 1.4
11 *667:79 *877:SE 1.4
12 *667:78 *667:83 11.8691
13 *667:76 *879:SE 1.4
14 *667:75 *881:SE 1.4
15 *667:74 *667:80 0.124288
16 *667:73 *667:79 1.4
17 *667:72 *667:78 1.4
18 *667:71 *876:SE 1.4
19 *667:70 *667:76 0.124283
20 *667:69 *667:75 0.124289
21 *667:68 *667:74 1.4
22 *667:67 *667:73 0.124284
23 *667:66 *667:72 1.4
24 *667:65 *667:71 1.4
25 *667:64 *667:70 1.4
26 *667:63 *667:69 1.4
27 *667:63 *667:68 4.59847
28 *667:61 *667:67 1.4
29 *667:60 *667:66 0.683555
30 *667:60 *667:65 1.4
31 *667:59 *667:64 0.124283
32 *667:59 *667:63 13.4226
33 *667:58 *935:Y 1.4
34 *667:57 *667:61 2.23718
35 *667:56 *667:60 7.58129
36 *667:54 *667:59 1.4
37 *667:53 *667:58 1.24289
38 *667:52 *667:57 1.4
39 *667:52 *667:56 1.4
40 *667:51 *878:SE 1.4
41 *667:50 *667:54 2.36138
42 *667:49 *667:53 1.4
43 *667:48 *667:52 7.95436
44 *667:48 *667:51 1.4
45 *667:47 *667:50 1.4
46 *667:46 *667:49 7.58153
47 *667:45 *667:48 11.9314
48 *667:45 *667:47 0.124283
49 *667:44 *667:46 1.4
50 *667:43 *667:45 1.4
51 *667:41 *667:44 0.497155
52 *667:41 *667:43 11.6831
53 *667:40 *888:SE 1.4
54 *667:39 *667:41 1.4
55 *667:38 *667:40 0.124284
56 *667:37 *667:39 1.49146
57 *667:36 *667:38 1.4
58 *667:34 *667:37 1.4
59 *667:33 *667:36 3.97705
60 *667:32 *880:SE 1.4
61 *667:32 *667:34 0.372866
62 *667:31 *667:33 1.4
63 *667:31 *667:32 10.1913
64 *667:30 *667:31 0.497134
65 *667:29 *667:30 1.4
66 *667:28 *667:29 0.745697
67 *667:26 *667:28 1.4
68 *667:25 *885:SE 1.4
69 *667:25 *667:26 2.73424
70 *667:23 *667:25 1.4
71 *667:22 *887:SE 1.4
72 *667:21 *667:23 14.7903
73 *667:21 *667:22 1.4
74 *667:20 *667:21 0.124283
75 *667:18 *667:20 1.4
76 *667:17 *886:SE 1.4
77 *667:16 *667:18 0.869982
78 *667:15 *667:17 1.4
79 *667:14 *667:16 1.4
80 *667:14 *667:15 1.73996
81 *667:13 *667:14 0.248566
82 *667:11 *667:13 1.4
83 *667:10 *883:SE 1.4
84 *667:9 *667:11 6.71154
85 *667:8 *667:10 1.4
86 *667:7 *667:9 1.4
87 *667:6 *667:8 3.10722
88 *667:6 *667:7 0.124289
89 *667:5 *667:6 1.4
90 *667:4 *667:5 2.2372
91 *667:3 *667:4 1.4
92 *667:2 *667:3 0.372866
93 *667:1 *667:2 1.4
94 *884:SE *667:1 1.4
*END

*D_NET *668 0.0525946

*CONN
*I *857:SE I *C 117.305 39.005 *L 0.00367 *D SDFFQXL
*I *856:SE I *C 118.175 49.445 *L 0.00367 *D SDFFQXL
*I *854:SE I *C 119.625 75.545 *L 0.00367 *D SDFFQXL
*I *853:SE I *C 102.805 75.545 *L 0.00367 *D SDFFQXL
*I *852:SE I *C 111.505 91.205 *L 0.00367 *D SDFFQXL
*I *849:SE I *C 75.835 112.085 *L 0.00367 *D SDFFQXL
*I *851:SE I *C 101.645 115.275 *L 0.00367 *D SDFFQXL
*I *848:SE I *C 44.225 115.275 *L 0.00367 *D SDFFQXL
*I *847:SE I *C 35.525 101.645 *L 0.00367 *D SDFFQXL
*I *846:SE I *C 41.325 80.765 *L 0.00367 *D SDFFQXL
*I *936:Y O *C 47.705 78.155 *L 0 *D OR2X1
*I *850:SE I *C 68.875 75.545 *L 0.00367 *D SDFFQXL
*I *844:SE I *C 37.845 70.325 *L 0.00381 *D SDFFQX1
*I *845:SE I *C 35.235 47.415 *L 0.00367 *D SDFFQXL
*I *858:SE I *C 54.665 47.415 *L 0.00367 *D SDFFQXL
*I *855:SE I *C 69.455 42.195 *L 0.00367 *D SDFFQXL

*CAP
1 *668:2 2.07968e-05
2 *668:3 2.07968e-05
3 *668:4 0.000730317
4 *668:5 0.00289661
5 *668:6 0.00219112
6 *668:7 4.15936e-05
7 *668:8 2.48248e-05
8 *668:9 0.000485343
9 *668:10 4.15936e-05
10 *668:11 0.000154427
11 *668:12 0.000485343
12 *668:14 0.000154427
13 *668:15 2.48248e-05
14 *668:18 0.00125919
15 *668:20 0.00123436
16 *668:21 0.000662188
17 *668:22 0.000653627
18 *668:23 0.000662188
19 *668:24 2.1959e-05
20 *668:25 0.000631668
21 *668:27 2.29546e-05
22 *668:28 0.00168812
23 *668:30 2.29546e-05
24 *668:31 0.00168812
25 *668:33 0.000100075
26 *668:34 0.00235364
27 *668:35 0.000225131
28 *668:36 0.00493796
29 *668:37 0.000225131
30 *668:39 0.00272843
31 *668:40 2.50188e-05
32 *668:42 0.000661283
33 *668:43 4.4028e-05
34 *668:44 2.50188e-05
35 *668:45 0.000661283
36 *668:46 0.000217604
37 *668:48 0.000222336
38 *668:49 0.000217604
39 *668:51 0.000222336
40 *668:52 6.6042e-05
41 *668:53 9.96762e-05
42 *668:54 6.6042e-05
43 *668:55 0.00189385
44 *668:57 0.000494081
45 *668:58 0.00204448
46 *668:60 0.000494081
47 *668:62 0.000250308
48 *668:65 0.000584114
49 *668:68 0.000535438
50 *668:69 4.86762e-05
51 *668:70 0.000230975
52 *668:71 0.000692926
53 *668:72 2.56639e-05
54 *668:73 0.000205311
55 *668:74 0.000692926
56 *668:76 0.00188696
57 *668:77 0.000243381
58 *668:78 0.00188696
59 *668:79 0.000365072
60 *668:81 2.56639e-05
61 *668:82 0.000121691
62 *668:84 2.56639e-05
63 *668:85 0.00194191
64 *668:87 0.00199206
65 *668:88 0.000100863
66 *668:89 5.01487e-05
67 *668:90 0.000100863
68 *668:91 0.00159681
69 *668:92 5.01487e-05
70 *668:93 0.00172773
71 *668:94 5.01487e-05
72 *668:95 0.000130919
73 *668:98 0.000367351
74 *668:100 0.000367351
75 *668:101 0.00120446
76 *668:102 0.00120446
77 *668:103 2.16089e-05
78 *668:104 2.16089e-05

*RES
1 *668:104 *855:SE 1.4
2 *668:103 *668:104 0.124283
3 *668:102 *668:103 1.4
4 *668:101 *668:102 5.71728
5 *668:100 *668:101 1.4
6 *668:98 *668:100 2.11282
7 *668:96 *858:SE 1.4
8 *668:95 *668:98 1.4
9 *668:94 *845:SE 1.4
10 *668:93 *668:96 1.4
11 *668:93 *668:95 0.621444
12 *668:92 *668:94 0.248577
13 *668:91 *668:93 7.82987
14 *668:90 *668:92 1.4
15 *668:89 *668:91 1.4
16 *668:88 *668:90 0.497132
17 *668:87 *668:89 0.248577
18 *668:87 *668:88 1.4
19 *668:85 *668:87 9.44557
20 *668:84 *844:SE 1.4
21 *668:82 *668:85 1.4
22 *668:81 *668:84 0.124283
23 *668:80 *850:SE 1.4
24 *668:79 *668:82 0.621413
25 *668:79 *668:81 1.4
26 *668:78 *668:80 1.4
27 *668:77 *668:79 1.24283
28 *668:76 *668:78 9.07265
29 *668:74 *668:77 1.4
30 *668:73 *668:76 1.4
31 *668:72 *936:Y 1.4
32 *668:71 *668:74 3.35563
33 *668:70 *668:73 0.994261
34 *668:70 *668:72 0.124283
35 *668:69 *668:71 1.4
36 *668:68 *668:70 1.4
37 *668:65 *668:69 0.248565
38 *668:65 *668:68 2.73422
39 *668:64 *846:SE 1.4
40 *668:63 *847:SE 1.4
41 *668:62 *668:65 1.4
42 *668:61 *668:64 1.4
43 *668:60 *668:63 1.4
44 *668:58 *668:62 1.24288
45 *668:58 *668:61 1.4
46 *668:57 *668:60 2.48566
47 *668:56 *848:SE 1.4
48 *668:55 *668:58 8.94879
49 *668:55 *668:57 1.4
50 *668:54 *668:56 1.4
51 *668:53 *668:55 0.497155
52 *668:52 *668:54 0.372866
53 *668:51 *668:53 1.4
54 *668:49 *668:52 1.4
55 *668:48 *668:51 1.11855
56 *668:47 *851:SE 1.4
57 *668:46 *668:49 1.36711
58 *668:45 *668:48 1.4
59 *668:44 *668:47 1.4
60 *668:43 *668:46 1.4
61 *668:42 *668:45 3.97709
62 *668:40 *668:44 0.124283
63 *668:39 *668:43 0.248578
64 *668:39 *668:42 1.4
65 *668:38 *849:SE 1.4
66 *668:37 *668:40 1.4
67 *668:36 *668:39 13.6713
68 *668:36 *668:38 1.4
69 *668:35 *668:37 1.36718
70 *668:34 *668:36 11.1855
71 *668:34 *668:35 1.4
72 *668:33 *668:34 0.497132
73 *668:31 *668:33 1.4
74 *668:30 *852:SE 1.4
75 *668:28 *668:31 9.07308
76 *668:27 *668:30 0.124283
77 *668:26 *853:SE 1.4
78 *668:25 *668:28 1.4
79 *668:24 *668:27 1.4
80 *668:23 *668:26 1.4
81 *668:22 *668:25 3.48006
82 *668:22 *668:24 0.124289
83 *668:21 *668:23 3.60437
84 *668:20 *668:22 1.4
85 *668:18 *668:21 1.4
86 *668:18 *668:20 6.58704
87 *668:17 *854:SE 1.4
88 *668:15 *668:18 0.124289
89 *668:14 *668:17 1.4
90 *668:13 *856:SE 1.4
91 *668:12 *668:15 1.4
92 *668:11 *668:14 0.870021
93 *668:10 *668:13 1.4
94 *668:9 *668:12 2.73435
95 *668:8 *668:11 1.4
96 *668:7 *668:10 0.248566
97 *668:6 *668:9 1.4
98 *668:6 *668:8 0.124289
99 *668:5 *668:7 1.4
100 *668:5 *668:6 11.0616
101 *668:4 *668:5 4.47419
102 *668:3 *668:4 1.4
103 *668:2 *668:3 0.124283
104 *668:1 *668:2 1.4
105 *857:SE *668:1 1.4
*END

*D_NET *669 0.0510701

*CONN
*I *788:SE I *C 59.595 120.495 *L 0.00381 *D SDFFQX1
*I *792:SE I *C 87.145 99.615 *L 0.00381 *D SDFFQX1
*I *791:SE I *C 89.755 112.085 *L 0.00381 *D SDFFQX1
*I *789:SE I *C 78.445 99.615 *L 0.00381 *D SDFFQX1
*I *794:SE I *C 90.915 91.205 *L 0.00381 *D SDFFQX1
*I *793:SE I *C 86.855 80.765 *L 0.00381 *D SDFFQX1
*I *790:SE I *C 70.035 63.075 *L 0.00381 *D SDFFQX1
*I *798:SE I *C 58.435 28.565 *L 0.00381 *D SDFFQX1
*I *795:SE I *C 75.255 28.565 *L 0.00381 *D SDFFQX1
*I *797:SE I *C 85.695 28.565 *L 0.00381 *D SDFFQX1
*I *796:SE I *C 92.075 31.755 *L 0.00381 *D SDFFQX1
*I *941:Y O *C 41.31 47.4575 *L 0 *D AND3X1
*I *785:SE I *C 11.455 49.445 *L 0.00381 *D SDFFQX1
*I *784:SE I *C 11.455 63.075 *L 0.00381 *D SDFFQX1
*I *786:SE I *C 11.745 78.735 *L 0.00381 *D SDFFQX1
*I *787:SE I *C 11.745 99.615 *L 0.00381 *D SDFFQX1

*CAP
1 *669:2 5.04785e-05
2 *669:3 5.04785e-05
3 *669:4 0.000532409
4 *669:5 0.000532409
5 *669:6 0.00234053
6 *669:7 0.00234053
7 *669:8 8.18659e-05
8 *669:9 0.00101032
9 *669:10 0.000225169
10 *669:11 0.000928456
11 *669:12 0.000225169
12 *669:14 2.56958e-05
13 *669:15 2.04665e-05
14 *669:16 0.000770873
15 *669:17 2.04665e-05
16 *669:18 0.000739202
17 *669:19 0.000745178
18 *669:21 0.000739202
19 *669:23 5.13916e-05
20 *669:25 0.000359741
21 *669:26 0.000308349
22 *669:27 0.000837762
23 *669:28 2.46401e-05
24 *669:29 0.000837762
25 *669:30 2.46401e-05
26 *669:31 5.13916e-05
27 *669:33 0.00155768
28 *669:34 2.46401e-05
29 *669:35 0.00150629
30 *669:36 2.46401e-05
31 *669:37 0.00149647
32 *669:39 0.00414048
33 *669:41 0.00268723
34 *669:42 0.00104735
35 *669:43 4.32178e-05
36 *669:44 0.0024046
37 *669:45 0.000471309
38 *669:46 2.16089e-05
39 *669:47 0.00135724
40 *669:48 0.00139667
41 *669:49 2.16089e-05
42 *669:50 0.00145431
43 *669:51 0.00148651
44 *669:52 2.16089e-05
45 *669:54 0.00145431
46 *669:55 0.000561152
47 *669:56 2.16395e-05
48 *669:57 2.16089e-05
49 *669:58 0.000151294
50 *669:59 0.000259674
51 *669:60 2.16395e-05
52 *669:62 0.000151294
53 *669:63 0.000259674
54 *669:65 0.000154337
55 *669:67 0.000327264
56 *669:68 0.00017163
57 *669:69 1.29695e-06
58 *669:70 0.00235226
59 *669:72 0.00235226
60 *669:73 0.00104383
61 *669:74 0.00213568
62 *669:76 0.00109186
63 *669:78 2.06397e-05
64 *669:79 2.06397e-05
65 *669:80 0.000133895
66 *669:81 0.00164749
67 *669:82 0.0015136
68 *669:83 4.07614e-05
69 *669:84 4.07614e-05
70 *669:85 4.07614e-05
71 *669:86 4.07614e-05

*RES
1 *669:88 *787:SE 1.4
2 *669:87 *786:SE 1.4
3 *669:86 *669:88 1.4
4 *669:85 *669:87 1.4
5 *669:84 *669:86 0.248566
6 *669:83 *669:85 0.248566
7 *669:82 *669:84 1.4
8 *669:81 *669:83 1.4
9 *669:81 *669:82 8.94835
10 *669:80 *669:81 0.7457
11 *669:79 *669:80 1.4
12 *669:78 *669:79 0.124283
13 *669:76 *669:78 1.4
14 *669:74 *784:SE 1.4
15 *669:74 *669:76 5.96561
16 *669:73 *785:SE 1.4
17 *669:73 *669:74 5.84132
18 *669:72 *669:73 1.4
19 *669:70 *669:72 12.8011
20 *669:69 *941:Y 1.4
21 *669:68 *669:70 1.4
22 *669:67 *669:69 0.00642872
23 *669:67 *669:68 0.850734
24 *669:65 *669:67 0.765017
25 *669:63 *796:SE 1.4
26 *669:62 *669:65 1.4
27 *669:60 *797:SE 1.4
28 *669:59 *669:63 1.49146
29 *669:58 *669:62 0.745697
30 *669:57 *795:SE 1.4
31 *669:56 *669:60 0.124289
32 *669:55 *669:59 1.4
33 *669:54 *669:58 1.4
34 *669:52 *669:57 0.124283
35 *669:51 *669:56 1.4
36 *669:51 *669:55 2.73435
37 *669:50 *669:54 7.20873
38 *669:49 *798:SE 1.4
39 *669:48 *669:52 1.4
40 *669:48 *669:51 4.47439
41 *669:47 *669:50 1.4
42 *669:46 *669:49 0.124283
43 *669:45 *669:48 2.2372
44 *669:44 *669:47 6.58712
45 *669:44 *669:46 1.4
46 *669:43 *669:45 1.4
47 *669:42 *669:44 4.97155
48 *669:41 *669:43 0.248567
49 *669:41 *669:42 1.4
50 *669:39 *669:41 14.6655
51 *669:39 *790:SE 1.4
52 *669:37 *669:39 7.70563
53 *669:36 *793:SE 1.4
54 *669:35 *669:37 1.4
55 *669:34 *669:36 0.124289
56 *669:33 *669:35 7.20857
57 *669:33 *669:34 1.4
58 *669:31 *669:33 0.248566
59 *669:30 *794:SE 1.4
60 *669:29 *669:31 1.4
61 *669:28 *669:30 0.124289
62 *669:27 *669:29 4.22582
63 *669:26 *669:28 1.4
64 *669:25 *669:27 1.4
65 *669:25 *669:26 1.49139
66 *669:23 *669:25 0.248566
67 *669:22 *789:SE 1.4
68 *669:21 *669:23 1.4
69 *669:19 *669:22 1.4
70 *669:18 *669:21 3.72866
71 *669:17 *791:SE 1.4
72 *669:16 *669:19 3.6042
73 *669:16 *669:18 1.4
74 *669:15 *669:17 0.124289
75 *669:14 *669:16 0.124283
76 *669:12 *669:15 1.4
77 *669:11 *669:14 1.4
78 *669:11 *792:SE 1.4
79 *669:10 *669:12 1.11855
80 *669:9 *669:11 5.22013
81 *669:9 *669:10 1.4
82 *669:8 *669:9 0.497155
83 *669:7 *669:8 1.4
84 *669:6 *669:7 11.5583
85 *669:5 *669:6 1.4
86 *669:4 *669:5 3.23137
87 *669:3 *669:4 1.4
88 *669:2 *669:3 0.248566
89 *669:1 *669:2 1.4
90 *788:SE *669:1 1.4
*END

*D_NET *670 0.0151271

*CONN
*I *830:SI I *C 38.715 36.685 *L 0.00172 *D SDFFQX1
*I *1342:A I *C 36.685 34.075 *L 0.0017 *D MXI2XL
*I *1340:A I *C 26.535 34.075 *L 0.0017 *D MXI2XL
*I *1356:B I *C 30.88 34.415 *L 0.00164 *D MXI2XL
*I *800:SI I *C 24.215 36.685 *L 0.00172 *D SDFFQX1
*I *725:D I *C 23.055 44.515 *L 0.00183 *D SDFFQX1
*I *770:SI I *C 20.445 41.905 *L 0.00172 *D SDFFQX1
*I *860:SI I *C 19.285 47.125 *L 0.00172 *D SDFFQX1
*I *890:SI I *C 11.165 47.125 *L 0.00172 *D SDFFQX1
*I *740:SI I *C 27.405 47.125 *L 0.00172 *D SDFFQX1
*I *785:SI I *C 11.165 49.735 *L 0.00172 *D SDFFQX1
*I *845:D I *C 33.785 47.125 *L 0.00181 *D SDFFQXL
*I *815:SI I *C 37.845 44.515 *L 0.00172 *D SDFFQX1
*I *875:D I *C 16.965 52.345 *L 0.00183 *D SDFFQX1
*I *755:SI I *C 19.575 57.565 *L 0.00172 *D SDFFQX1
*I *905:D I *C 10.005 57.565 *L 0.00181 *D SDFFQXL
*I *974:Y O *C 22.475 58.145 *L 0 *D AO21X1

*CAP
1 *670:1 0.000225669
2 *670:2 0.000225669
3 *670:3 0.000176509
4 *670:4 0.000680822
5 *670:6 0.000882547
6 *670:8 2.93975e-05
7 *670:9 0.000378234
8 *670:10 2.98298e-05
9 *670:11 0.00017552
10 *670:12 4.32316e-07
11 *670:13 0.00017552
12 *670:16 0.000149832
13 *670:17 0.000170197
14 *670:18 0.000381625
15 *670:19 2.03652e-05
16 *670:20 0.000381625
17 *670:21 4.0171e-05
18 *670:22 0.000101826
19 *670:23 4.0171e-05
20 *670:24 0.000285113
21 *670:26 0.000200855
22 *670:27 0.000183287
23 *670:28 0.000381625
24 *670:29 2.00855e-05
25 *670:30 0.000200855
26 *670:32 2.00855e-05
27 *670:33 2.00855e-05
28 *670:34 0.000264747
29 *670:36 0.000327305
30 *670:37 0.000834973
31 *670:38 0.000882049
32 *670:40 0.000610956
33 *670:41 0.000680822
34 *670:42 2.50744e-05
35 *670:44 0.00018077
36 *670:45 4.07304e-05
37 *670:46 0.000126078
38 *670:47 2.50744e-05
39 *670:48 2.50744e-05
40 *670:49 0.00018077
41 *670:51 0.000385617
42 *670:52 0.000225669
43 *670:53 2.50744e-05
44 *670:56 0.000385617
45 *670:57 0.000225669
46 *670:59 2.06397e-05
47 *670:60 0.000226941
48 *670:61 0.000454074
49 *670:62 0.000226941
50 *670:63 0.0003867
51 *670:64 0.000433434
52 *670:65 2.50744e-05
53 *670:66 0.0003867
54 *670:67 2.2747e-05
55 *670:68 2.50744e-05
56 *670:69 0.000681111
57 *670:70 2.2747e-05
58 *670:72 0.000825589
59 *670:73 6.19192e-05
60 *670:75 0.000206397
61 *670:78 4.54941e-05
62 *670:81 4.54941e-05

*RES
1 *670:81 *974:Y 1.4
2 *670:78 *670:81 0.248567
3 *670:77 *905:D 1.4
4 *670:76 *755:SI 1.4
5 *670:75 *670:78 1.4
6 *670:73 *670:77 1.4
7 *670:72 *670:76 1.4
8 *670:72 *670:75 1.24283
9 *670:70 *875:D 1.4
10 *670:69 *670:73 0.372849
11 *670:69 *670:72 3.72849
12 *670:68 *815:SI 1.4
13 *670:67 *670:70 0.124284
14 *670:66 *670:69 1.4
15 *670:65 *670:68 0.124289
16 *670:64 *670:67 1.4
17 *670:63 *670:66 2.11282
18 *670:62 *670:65 1.4
19 *670:61 *670:64 2.60994
20 *670:61 *670:63 1.4
21 *670:60 *670:62 1.11855
22 *670:59 *670:61 0.124283
23 *670:57 *670:60 1.4
24 *670:56 *670:59 1.4
25 *670:53 *845:D 1.4
26 *670:52 *670:57 1.1186
27 *670:51 *670:56 2.36138
28 *670:49 *785:SI 1.4
29 *670:48 *740:SI 1.4
30 *670:47 *670:53 0.124289
31 *670:46 *670:52 1.4
32 *670:45 *670:51 1.4
33 *670:44 *890:SI 1.4
34 *670:44 *670:49 1.11855
35 *670:42 *670:48 0.124289
36 *670:41 *670:47 1.4
37 *670:41 *670:46 0.621414
38 *670:40 *670:45 0.248566
39 *670:40 *670:44 1.4
40 *670:39 *860:SI 1.4
41 *670:38 *670:42 1.4
42 *670:38 *670:41 2.73422
43 *670:37 *670:40 3.47993
44 *670:37 *670:39 1.4
45 *670:36 *670:38 1.86425
46 *670:34 *670:37 1.61568
47 *670:33 *670:36 1.4
48 *670:32 *770:SI 1.4
49 *670:30 *670:34 1.4
50 *670:30 *670:33 0.124283
51 *670:29 *670:32 0.124283
52 *670:28 *725:D 1.4
53 *670:28 *670:30 1.11855
54 *670:27 *670:29 1.4
55 *670:26 *670:28 1.24283
56 *670:24 *670:27 1.11855
57 *670:24 *670:26 1.4
58 *670:23 *800:SI 1.4
59 *670:22 *670:24 0.621416
60 *670:21 *670:23 0.248567
61 *670:20 *670:22 1.4
62 *670:19 *670:21 1.4
63 *670:18 *670:20 2.36138
64 *670:17 *670:19 0.124283
65 *670:17 *670:18 1.4
66 *670:16 *670:17 0.869981
67 *670:13 *670:16 1.4
68 *670:12 *1356:B 1.4
69 *670:11 *1340:A 1.4
70 *670:11 *670:13 0.87002
71 *670:10 *670:12 0.00214291
72 *670:9 *670:11 1.4
73 *670:8 *670:10 0.145718
74 *670:6 *670:9 1.86424
75 *670:6 *670:8 1.4
76 *670:5 *1342:A 1.4
77 *670:4 *670:6 2.48566
78 *670:4 *670:5 1.4
79 *670:3 *670:4 0.86998
80 *670:2 *670:3 1.4
81 *670:1 *670:2 1.1186
82 *830:SI *670:1 1.4
*END

*D_NET *671 0.0544678

*CONN
*I *823:SE I *C 92.075 73.515 *L 0.00367 *D SDFFQXL
*I *824:SE I *C 90.045 85.985 *L 0.00367 *D SDFFQXL
*I *820:SE I *C 77.865 89.175 *L 0.00367 *D SDFFQXL
*I *821:SE I *C 102.515 122.525 *L 0.00367 *D SDFFQXL
*I *822:SE I *C 106.865 106.865 *L 0.00367 *D SDFFQXL
*I *819:SE I *C 68.585 122.525 *L 0.00367 *D SDFFQXL
*I *817:SE I *C 34.655 112.085 *L 0.00381 *D SDFFQX1
*I *818:SE I *C 35.815 106.865 *L 0.00381 *D SDFFQX1
*I *816:SE I *C 37.555 85.985 *L 0.00381 *D SDFFQX1
*I *814:SE I *C 34.945 63.075 *L 0.00381 *D SDFFQX1
*I *937:Y O *C 50.315 52.925 *L 0 *D AND2X1
*I *815:SE I *C 38.135 44.225 *L 0.00381 *D SDFFQX1
*I *828:SE I *C 60.755 31.755 *L 0.00381 *D SDFFQX1
*I *825:SE I *C 83.665 31.755 *L 0.00367 *D SDFFQXL
*I *827:SE I *C 103.385 31.755 *L 0.00367 *D SDFFQXL
*I *826:SE I *C 103.675 33.785 *L 0.00367 *D SDFFQXL

*CAP
1 *671:1 0.00104004
2 *671:2 0.00104004
3 *671:3 0.00017987
4 *671:4 0.000231262
5 *671:6 5.13916e-05
6 *671:8 0.000295681
7 *671:9 0.000295681
8 *671:10 0.00108006
9 *671:11 5.13916e-05
10 *671:12 0.00102867
11 *671:13 0.00140199
12 *671:14 2.42286e-05
13 *671:15 0.00140199
14 *671:16 2.42286e-05
15 *671:17 0.00107581
16 *671:19 0.00107581
17 *671:20 0.00116659
18 *671:21 0.00116659
19 *671:22 2.04665e-05
20 *671:23 2.04665e-05
21 *671:25 0.000325611
22 *671:26 0.00293458
23 *671:27 0.000325611
24 *671:28 0.00293458
25 *671:29 5.50873e-05
26 *671:30 2.04773e-05
27 *671:31 5.50873e-05
28 *671:32 0.00067575
29 *671:35 0.000655273
30 *671:36 0.00260377
31 *671:37 0.00260377
32 *671:38 7.91288e-05
33 *671:39 0.000435209
34 *671:40 0.000154098
35 *671:41 0.00210659
36 *671:42 0.000154098
37 *671:43 6.6042e-05
38 *671:44 0.00370689
39 *671:46 6.6042e-05
40 *671:47 7.41121e-05
41 *671:48 0.00198205
42 *671:51 7.41121e-05
43 *671:52 0.000146029
44 *671:53 2.56639e-05
45 *671:56 0.000146029
46 *671:57 0.000146029
47 *671:59 0.00105134
48 *671:60 0.000146029
49 *671:61 0.00105134
50 *671:62 2.56639e-05
51 *671:63 2.52156e-05
52 *671:64 2.56639e-05
53 *671:65 0.00103384
54 *671:67 0.00100863
55 *671:68 0.000651933
56 *671:69 0.0018319
57 *671:70 0.000651933
58 *671:71 0.000101771
59 *671:72 0.00173013
60 *671:73 5.04313e-05
61 *671:75 0.000936325
62 *671:76 5.04313e-05
63 *671:77 0.00299233
64 *671:79 0.00379047
65 *671:82 0.00175998
66 *671:85 2.55069e-05
67 *671:88 0.000151476
68 *671:90 0.000151476

*RES
1 *671:90 *826:SE 1.4
2 *671:88 *671:90 0.870021
3 *671:86 *827:SE 1.4
4 *671:85 *671:88 1.4
5 *671:83 *825:SE 1.4
6 *671:82 *671:86 1.4
7 *671:82 *671:85 0.124289
8 *671:80 *828:SE 1.4
9 *671:79 *671:83 1.4
10 *671:79 *671:82 8.45164
11 *671:78 *815:SE 1.4
12 *671:77 *671:80 1.4
13 *671:77 *671:79 9.81881
14 *671:76 *671:78 1.4
15 *671:75 *671:77 4.47436
16 *671:73 *671:76 0.248566
17 *671:72 *671:75 1.4
18 *671:71 *937:Y 1.4
19 *671:70 *671:73 1.4
20 *671:69 *671:72 8.57591
21 *671:69 *671:71 0.497139
22 *671:68 *671:70 3.2315
23 *671:67 *671:69 1.4
24 *671:65 *671:68 1.4
25 *671:65 *671:67 4.97132
26 *671:64 *814:SE 1.4
27 *671:63 *671:65 0.124283
28 *671:62 *671:64 0.124283
29 *671:61 *671:63 1.4
30 *671:60 *671:62 1.4
31 *671:59 *671:61 5.0956
32 *671:57 *671:60 0.745696
33 *671:56 *671:59 1.4
34 *671:55 *816:SE 1.4
35 *671:53 *671:57 1.4
36 *671:52 *671:56 0.745696
37 *671:51 *671:55 1.4
38 *671:50 *818:SE 1.4
39 *671:48 *671:53 0.124283
40 *671:48 *671:52 1.4
41 *671:47 *671:51 0.372849
42 *671:46 *671:50 1.4
43 *671:45 *817:SE 1.4
44 *671:44 *671:48 9.56993
45 *671:44 *671:47 1.4
46 *671:43 *671:46 0.372866
47 *671:42 *671:45 1.4
48 *671:41 *671:44 8.94874
49 *671:41 *671:43 1.4
50 *671:40 *671:42 0.870021
51 *671:39 *671:41 2.2371
52 *671:39 *671:40 1.4
53 *671:38 *671:39 0.497133
54 *671:37 *671:38 1.4
55 *671:36 *671:37 13.6714
56 *671:35 *671:36 1.4
57 *671:32 *671:35 3.97707
58 *671:32 *819:SE 1.4
59 *671:31 *822:SE 1.4
60 *671:30 *671:32 0.124283
61 *671:29 *671:31 0.372864
62 *671:28 *671:30 1.4
63 *671:27 *671:29 1.4
64 *671:26 *671:28 14.5411
65 *671:25 *671:27 1.86425
66 *671:23 *671:26 1.4
67 *671:22 *671:25 1.4
68 *671:21 *821:SE 1.4
69 *671:21 *671:23 0.124289
70 *671:20 *671:22 0.124289
71 *671:20 *671:21 6.96017
72 *671:19 *671:20 1.4
73 *671:17 *671:19 5.34416
74 *671:16 *820:SE 1.4
75 *671:15 *671:17 1.4
76 *671:14 *671:16 0.124289
77 *671:13 *671:15 7.20875
78 *671:12 *671:14 1.4
79 *671:11 *671:13 1.4
80 *671:10 *671:12 4.97132
81 *671:10 *671:11 0.248566
82 *671:9 *671:10 1.4
83 *671:8 *671:9 1.49146
84 *671:6 *671:8 1.4
85 *671:5 *824:SE 1.4
86 *671:4 *671:6 0.248566
87 *671:4 *671:5 1.4
88 *671:3 *671:4 0.86998
89 *671:2 *671:3 1.4
90 *671:1 *671:2 5.34441
91 *823:SE *671:1 1.4
*END

*D_NET *672 0.0531891

*CONN
*I *773:SE I *C 59.595 122.525 *L 0.00381 *D SDFFQX1
*I *774:SE I *C 77.865 122.525 *L 0.00381 *D SDFFQX1
*I *776:SE I *C 88.885 122.525 *L 0.00381 *D SDFFQX1
*I *777:SE I *C 97.295 122.525 *L 0.00381 *D SDFFQX1
*I *779:SE I *C 96.715 94.395 *L 0.00381 *D SDFFQX1
*I *778:SE I *C 94.395 75.545 *L 0.00381 *D SDFFQX1
*I *775:SE I *C 71.485 65.105 *L 0.00381 *D SDFFQX1
*I *780:SE I *C 75.545 31.755 *L 0.00381 *D SDFFQX1
*I *781:SE I *C 100.485 31.755 *L 0.00381 *D SDFFQX1
*I *783:SE I *C 58.725 31.755 *L 0.00381 *D SDFFQX1
*I *782:SE I *C 100.485 28.565 *L 0.00381 *D SDFFQX1
*I *940:Y O *C 36.7 42.2375 *L 0 *D AND3X1
*I *770:SE I *C 20.735 42.195 *L 0.00381 *D SDFFQX1
*I *769:SE I *C 11.455 75.545 *L 0.00381 *D SDFFQX1
*I *771:SE I *C 11.745 83.955 *L 0.00381 *D SDFFQX1
*I *772:SE I *C 11.745 110.055 *L 0.00381 *D SDFFQX1

*CAP
1 *672:2 0.00159007
2 *672:3 0.00254112
3 *672:4 0.00162655
4 *672:6 0.000725545
5 *672:9 5.00376e-05
6 *672:10 0.00207996
7 *672:13 0.00212924
8 *672:15 0.000205566
9 *672:16 4.92801e-05
10 *672:17 0.000205566
11 *672:19 0.00163966
12 *672:20 0.00248419
13 *672:22 0.000844528
14 *672:23 0.00206761
15 *672:24 0.00209387
16 *672:26 2.62559e-05
17 *672:28 0.00257516
18 *672:29 0.00261837
19 *672:30 0.000392758
20 *672:31 4.32178e-05
21 *672:32 0.00259278
22 *672:33 0.00112591
23 *672:34 0.00220002
24 *672:35 2.16089e-05
25 *672:36 0.00120446
26 *672:37 2.16395e-05
27 *672:38 2.16089e-05
28 *672:39 2.16089e-05
29 *672:40 7.85515e-05
30 *672:41 0.000259674
31 *672:43 2.16089e-05
32 *672:44 0.000799529
33 *672:46 0.000238034
34 *672:48 0.000799529
35 *672:50 0.00185962
36 *672:51 0.00185962
37 *672:52 3.89085e-06
38 *672:53 2.63713e-05
39 *672:54 1.29695e-06
40 *672:55 2.11835e-05
41 *672:57 0.00129713
42 *672:58 0.00129713
43 *672:59 0.00254683
44 *672:60 0.00252675
45 *672:61 2.00855e-05
46 *672:62 0.000660471
47 *672:64 0.000681111
48 *672:65 2.2747e-05
49 *672:66 2.06397e-05
50 *672:67 2.2747e-05
51 *672:68 0.000603283
52 *672:70 0.000603283
53 *672:71 4.07614e-05
54 *672:72 4.07614e-05
55 *672:74 0.00181916
56 *672:76 0.00181916

*RES
1 *672:78 *772:SE 1.4
2 *672:77 *672:78 1.4
3 *672:76 *672:77 1.4
4 *672:74 *672:76 11.1855
5 *672:73 *771:SE 1.4
6 *672:72 *672:74 1.4
7 *672:72 *672:73 1.4
8 *672:71 *672:72 0.248566
9 *672:70 *672:71 1.4
10 *672:68 *672:70 3.47992
11 *672:67 *769:SE 1.4
12 *672:66 *672:68 1.4
13 *672:65 *672:67 0.124284
14 *672:64 *672:66 0.124283
15 *672:64 *672:65 1.4
16 *672:62 *672:64 3.97706
17 *672:61 *770:SE 1.4
18 *672:60 *672:62 1.4
19 *672:59 *672:61 0.124283
20 *672:59 *672:60 14.2926
21 *672:58 *672:59 1.4
22 *672:57 *672:58 6.83556
23 *672:55 *672:57 1.4
24 *672:54 *940:Y 1.4
25 *672:53 *672:55 0.105002
26 *672:53 *672:54 0.00642872
27 *672:52 *672:53 0.0192862
28 *672:51 *672:52 1.4
29 *672:50 *672:51 9.07277
30 *672:48 *672:50 1.4
31 *672:46 *782:SE 1.4
32 *672:44 *672:48 4.59849
33 *672:43 *783:SE 1.4
34 *672:41 *672:46 1.36718
35 *672:41 *781:SE 1.4
36 *672:40 *672:44 1.4
37 *672:39 *672:43 0.124283
38 *672:38 *780:SE 1.4
39 *672:37 *672:41 0.124289
40 *672:36 *672:40 0.372866
41 *672:36 *672:39 1.4
42 *672:35 *672:38 0.124283
43 *672:34 *672:37 1.4
44 *672:33 *672:36 5.34442
45 *672:32 *672:35 1.4
46 *672:32 *672:34 10.6888
47 *672:31 *672:33 1.4
48 *672:30 *672:32 1.86433
49 *672:29 *672:31 0.248567
50 *672:29 *672:30 1.4
51 *672:28 *672:29 14.1683
52 *672:26 *672:28 1.4
53 *672:25 *775:SE 1.4
54 *672:24 *672:26 0.124283
55 *672:24 *672:25 1.4
56 *672:23 *672:24 9.81867
57 *672:22 *672:23 1.4
58 *672:20 *672:22 4.47437
59 *672:20 *778:SE 1.4
60 *672:19 *672:20 8.32734
61 *672:17 *672:19 1.4
62 *672:16 *779:SE 1.4
63 *672:15 *672:17 0.994263
64 *672:13 *672:16 0.248577
65 *672:13 *672:15 1.4
66 *672:12 *777:SE 1.4
67 *672:10 *672:13 11.8074
68 *672:9 *672:12 1.4
69 *672:7 *776:SE 1.4
70 *672:6 *672:10 1.4
71 *672:6 *672:9 0.248566
72 *672:5 *774:SE 1.4
73 *672:4 *672:7 1.4
74 *672:4 *672:6 3.35564
75 *672:3 *672:5 1.4
76 *672:3 *672:4 4.72275
77 *672:2 *672:3 7.82982
78 *672:1 *672:2 1.4
79 *773:SE *672:1 1.4
*END

*D_NET *673 0.000447336

*CONN
*I *1339:B I *C 25.955 31.755 *L 0.00284 *D NAND2BX1
*I *1340:Y O *C 26.825 33.495 *L 0 *D MXI2XL

*CAP
1 *673:2 2.27904e-05
2 *673:3 2.27904e-05
3 *673:4 0.000150446
4 *673:5 0.000150446
5 *673:6 5.04313e-05
6 *673:7 5.04313e-05

*RES
1 *673:8 *1340:Y 1.4
2 *673:7 *673:8 1.4
3 *673:6 *673:7 0.248566
4 *673:5 *673:6 1.4
5 *673:4 *673:5 0.745731
6 *673:3 *673:4 1.4
7 *673:2 *673:3 0.124283
8 *673:1 *673:2 1.4
9 *1339:B *673:1 1.4
*END

*D_NET *674 0.000811252

*CONN
*I *1248:D I *C 21.895 34.075 *L 0.00183 *D SDFFQX1
*I *1339:Y O *C 25.955 32.335 *L 0 *D NAND2BX1

*CAP
1 *674:1 0.000120513
2 *674:2 0.000120513
3 *674:3 0.000285113
4 *674:4 0.000285113

*RES
1 *674:5 *1339:Y 1.4
2 *674:4 *674:5 1.4
3 *674:3 *674:4 1.73996
4 *674:2 *674:3 1.4
5 *674:1 *674:2 0.7457
6 *1248:D *674:1 1.4
*END

*D_NET *675 0.000401755

*CONN
*I *1341:B I *C 36.395 31.755 *L 0.00284 *D NAND2BX1
*I *1342:Y O *C 36.975 33.495 *L 0 *D MXI2XL

*CAP
1 *675:2 2.52156e-05
2 *675:3 2.52156e-05
3 *675:4 0.000150446
4 *675:5 0.000150446
5 *675:6 2.52156e-05
6 *675:7 2.52156e-05

*RES
1 *675:8 *1342:Y 1.4
2 *675:7 *675:8 1.4
3 *675:6 *675:7 0.124283
4 *675:5 *675:6 1.4
5 *675:4 *675:5 0.745731
6 *675:3 *675:4 1.4
7 *675:2 *675:3 0.124283
8 *675:1 *675:2 1.4
9 *1341:B *675:1 1.4
*END

*D_NET *676 0.000853941

*CONN
*I *1220:D I *C 34.945 28.855 *L 0.00183 *D SDFFQX1
*I *1341:Y O *C 36.395 32.335 *L 0 *D NAND2BX1

*CAP
1 *676:1 0.000300892
2 *676:2 0.000300892
3 *676:3 0.000126078
4 *676:4 0.000126078

*RES
1 *676:5 *1341:Y 1.4
2 *676:4 *676:5 1.4
3 *676:3 *676:4 0.621414
4 *676:2 *676:3 1.4
5 *676:1 *676:2 1.49146
6 *1220:D *676:1 1.4
*END

*D_NET *677 0.0395014

*CONN
*I *1068:B1 I *C 115.565 70.325 *L 0.00283 *D AOI22X1
*I *1112:B1 I *C 107.445 68.295 *L 0.00283 *D AOI22X1
*I *1088:A1 I *C 94.975 47.705 *L 0.0028 *D AOI22X1
*I *1077:B1 I *C 123.105 49.445 *L 0.00283 *D AOI22X1
*I *1053:B1 I *C 74.385 47.415 *L 0.00283 *D AOI22X1
*I *1103:A0 I *C 60.755 52.635 *L 0.00157 *D AOI22XL
*I *1348:A1 I *C 60.175 70.325 *L 0.00168 *D AO22XL
*I *981:A1 I *C 51.185 106.865 *L 0.00279 *D AOI211X1
*I *1343:Y O *C 50.025 83.665 *L 0 *D NOR2BX2
*I *1062:B1 I *C 70.035 110.055 *L 0.00283 *D AOI22X1
*I *1350:A1 I *C 99.905 104.835 *L 0.00168 *D AO22XL
*I *1052:B1 I *C 112.085 110.055 *L 0.00163 *D AOI222XL

*CAP
1 *677:2 2.20611e-05
2 *677:3 2.20611e-05
3 *677:4 0.000198598
4 *677:5 0.000198598
5 *677:6 2.20611e-05
6 *677:7 0.000639771
7 *677:8 0.00152539
8 *677:9 0.00061771
9 *677:10 0.00154567
10 *677:11 2.48248e-05
11 *677:12 0.00162965
12 *677:13 2.02866e-05
13 *677:14 2.48248e-05
14 *677:15 0.00165516
15 *677:16 0.000540716
16 *677:18 0.000151476
17 *677:19 2.55069e-05
18 *677:20 0.000540716
19 *677:21 0.000151476
20 *677:22 0.000129837
21 *677:25 0.000129837
22 *677:27 0.00179462
23 *677:28 0.00179462
24 *677:29 0.000368607
25 *677:30 0.000325389
26 *677:31 4.32178e-05
27 *677:32 0.00123403
28 *677:34 0.00123403
29 *677:35 2.412e-05
30 *677:36 0.00149544
31 *677:37 0.00147132
32 *677:39 5.25118e-05
33 *677:40 5.25118e-05
34 *677:41 0.00103884
35 *677:43 0.00103884
36 *677:45 0.00080847
37 *677:46 0.00080847
38 *677:47 0.000174433
39 *677:48 0.00202462
40 *677:49 0.00192931
41 *677:50 9.88161e-05
42 *677:51 7.91288e-05
43 *677:53 9.88161e-05
44 *677:54 0.00162926
45 *677:55 9.96762e-05
46 *677:56 0.00162926
47 *677:57 9.96762e-05
48 *677:58 0.000122864
49 *677:60 0.000143341
50 *677:61 2.04773e-05
51 *677:62 0.00263325
52 *677:64 0.00263325
53 *677:65 0.000409329
54 *677:66 6.13994e-05
55 *677:67 0.00034793
56 *677:68 0.000845896
57 *677:69 5.00376e-05
58 *677:70 0.000845896
59 *677:71 5.00376e-05
60 *677:72 3.67249e-05
61 *677:74 3.67249e-05

*RES
1 *677:74 *1052:B1 1.4
2 *677:73 *1350:A1 1.4
3 *677:72 *677:74 0.248576
4 *677:71 *677:73 1.4
5 *677:70 *677:72 1.4
6 *677:69 *677:71 0.248566
7 *677:68 *677:70 4.97132
8 *677:67 *677:69 1.4
9 *677:66 *677:68 1.4
10 *677:65 *677:67 2.11291
11 *677:65 *677:66 0.372866
12 *677:64 *677:65 1.4
13 *677:62 *677:64 13.0497
14 *677:61 *1062:B1 1.4
15 *677:60 *677:62 1.4
16 *677:60 *677:61 0.124283
17 *677:58 *677:60 0.7457
18 *677:57 *1343:Y 1.4
19 *677:56 *677:58 1.4
20 *677:55 *677:57 0.497155
21 *677:54 *677:56 8.07841
22 *677:53 *677:55 1.4
23 *677:51 *677:54 1.4
24 *677:50 *677:53 0.497132
25 *677:49 *981:A1 1.4
26 *677:49 *677:51 0.497133
27 *677:48 *677:50 1.4
28 *677:48 *677:49 9.4459
29 *677:47 *677:48 0.870021
30 *677:46 *677:47 1.4
31 *677:45 *677:46 3.85293
32 *677:43 *677:45 1.4
33 *677:42 *1348:A1 1.4
34 *677:41 *677:43 5.34427
35 *677:40 *677:42 1.4
36 *677:40 *677:41 1.4
37 *677:39 *677:40 0.248566
38 *677:37 *677:39 1.4
39 *677:36 *1103:A0 1.4
40 *677:36 *677:37 7.5813
41 *677:35 *677:36 0.124284
42 *677:34 *677:35 1.4
43 *677:32 *677:34 5.84129
44 *677:31 *1053:B1 1.4
45 *677:30 *677:32 1.4
46 *677:29 *677:31 0.248567
47 *677:29 *677:30 1.86425
48 *677:28 *677:29 1.4
49 *677:27 *677:28 8.70021
50 *677:25 *677:27 1.4
51 *677:23 *1077:B1 1.4
52 *677:22 *677:25 0.745732
53 *677:21 *1088:A1 1.4
54 *677:20 *677:23 1.4
55 *677:19 *677:22 1.4
56 *677:18 *677:21 0.870021
57 *677:16 *677:20 3.23136
58 *677:15 *677:19 0.124289
59 *677:15 *677:18 1.4
60 *677:14 *1112:B1 1.4
61 *677:13 *677:16 1.4
62 *677:12 *677:15 8.82428
63 *677:11 *677:14 0.124289
64 *677:10 *677:13 0.124283
65 *677:10 *677:12 1.4
66 *677:9 *677:11 1.4
67 *677:8 *677:10 7.83014
68 *677:7 *677:9 3.48009
69 *677:7 *677:8 1.4
70 *677:6 *677:7 0.124289
71 *677:5 *677:6 1.4
72 *677:4 *677:5 0.99431
73 *677:3 *677:4 1.4
74 *677:2 *677:3 0.124289
75 *677:1 *677:2 1.4
76 *1068:B1 *677:1 1.4
*END

*D_NET *678 0.00768557

*CONN
*I *1271:A0 I *C 46.835 65.395 *L 0.00164 *D OAI21XL
*I *1263:A0 I *C 36.105 65.395 *L 0.00164 *D OAI21XL
*I *921:A I *C 36.105 59.885 *L 0.00273 *D CLKINVX1
*I *979:B I *C 26.535 57.275 *L 0.00542 *D NOR2X2
*I *1264:A0 I *C 39.585 57.565 *L 0.00164 *D OAI21XL
*I *1344:Y O *C 25.375 67.715 *L 0 *D OAI2BB1X2
*I *974:A1 I *C 23.635 58.145 *L 0.00163 *D AO21X1

*CAP
1 *678:1 2.56639e-05
2 *678:2 2.56639e-05
3 *678:3 0.00090051
4 *678:4 0.00090051
5 *678:5 0.000487615
6 *678:6 2.56639e-05
7 *678:7 0.000667262
8 *678:10 0.000230975
9 *678:11 0.000803157
10 *678:12 2.56639e-05
11 *678:13 0.000870624
12 *678:14 0.000292057
13 *678:15 2.56639e-05
14 *678:16 6.74668e-05
15 *678:17 0.000292057
16 *678:18 2.56639e-05
17 *678:19 6.82411e-05
18 *678:20 2.56639e-05
19 *678:22 0.000796146
20 *678:23 2.56639e-05
21 *678:24 0.000727905
22 *678:25 0.000144478
23 *678:27 2.06397e-05
24 *678:28 0.000144478
25 *678:29 2.06397e-05
26 *678:30 2.2747e-05
27 *678:32 2.2747e-05

*RES
1 *678:32 *974:A1 1.4
2 *678:31 *1344:Y 1.4
3 *678:30 *678:32 0.124284
4 *678:29 *678:31 1.4
5 *678:28 *678:30 1.4
6 *678:27 *678:29 0.124283
7 *678:25 *678:28 0.869982
8 *678:24 *678:27 1.4
9 *678:23 *1264:A0 1.4
10 *678:22 *678:25 1.4
11 *678:22 *678:24 3.97707
12 *678:20 *678:23 0.124283
13 *678:19 *678:22 0.372851
14 *678:18 *979:B 1.4
15 *678:17 *678:20 1.4
16 *678:16 *678:19 1.4
17 *678:15 *678:18 0.124283
18 *678:14 *678:17 1.49139
19 *678:13 *678:16 0.372849
20 *678:13 *678:15 1.4
21 *678:12 *678:14 1.4
22 *678:11 *678:13 4.10133
23 *678:10 *678:12 0.124283
24 *678:10 *678:11 1.4
25 *678:7 *678:10 0.994261
26 *678:7 *921:A 1.4
27 *678:6 *1263:A0 1.4
28 *678:5 *678:7 2.23709
29 *678:5 *678:6 0.124283
30 *678:4 *678:5 1.4
31 *678:3 *678:4 4.59846
32 *678:2 *678:3 1.4
33 *678:1 *678:2 0.124283
34 *1271:A0 *678:1 1.4
*END

*D_NET *679 0.00321128

*CONN
*I *983:D I *C 97.585 106.865 *L 0.00166 *D NAND4XL
*I *1345:Y O *C 86.565 115.565 *L 0 *D AOI221X1

*CAP
1 *679:1 0.000634461
2 *679:2 0.000634461
3 *679:3 0.000950714
4 *679:4 0.000950714
5 *679:5 2.04665e-05
6 *679:6 2.04665e-05

*RES
1 *679:6 *1345:Y 1.4
2 *679:5 *679:6 0.124289
3 *679:4 *679:5 1.4
4 *679:3 *679:4 4.72275
5 *679:2 *679:3 1.4
6 *679:1 *679:2 3.85295
7 *983:D *679:1 1.4
*END

*D_NET *680 0.00153299

*CONN
*I *1007:B I *C 113.245 47.125 *L 0.00167 *D NAND2XL
*I *1346:Y O *C 114.695 53.215 *L 0 *D AOI222XL

*CAP
1 *680:2 0.000103984
2 *680:3 0.000103984
3 *680:4 0.000367428
4 *680:5 0.000367428
5 *680:6 0.000220611
6 *680:7 0.000220611
7 *680:8 7.44744e-05
8 *680:9 7.44744e-05

*RES
1 *680:9 *1346:Y 1.4
2 *680:8 *680:9 0.372866
3 *680:7 *680:8 1.4
4 *680:6 *680:7 1.24289
5 *680:5 *680:6 1.4
6 *680:4 *680:5 2.2371
7 *680:3 *680:4 1.4
8 *680:2 *680:3 0.621415
9 *680:1 *680:2 1.4
10 *1007:B *680:1 1.4
*END

*D_NET *681 0.000730894

*CONN
*I *1029:A I *C 72.935 68.295 *L 0.00162 *D NOR2XL
*I *1347:Y O *C 76.705 68.585 *L 0 *D AO22XL

*CAP
1 *681:2 0.000341327
2 *681:3 0.000341327
3 *681:4 2.412e-05
4 *681:5 2.412e-05

*RES
1 *681:5 *1347:Y 1.4
2 *681:4 *681:5 0.124284
3 *681:3 *681:4 1.4
4 *681:2 *681:3 1.61568
5 *681:1 *681:2 1.4
6 *1029:A *681:1 1.4
*END

*D_NET *682 0.00242961

*CONN
*I *1029:B I *C 72.645 68.005 *L 0.00171 *D NOR2XL
*I *1348:Y O *C 61.625 70.035 *L 0 *D AO22XL

*CAP
1 *682:1 2.412e-05
2 *682:2 2.412e-05
3 *682:3 0.000997724
4 *682:4 0.000997724
5 *682:5 0.00019296
6 *682:6 0.00019296

*RES
1 *682:6 *1348:Y 1.4
2 *682:5 *682:6 0.994268
3 *682:4 *682:5 1.4
4 *682:3 *682:4 4.72275
5 *682:2 *682:3 1.4
6 *682:1 *682:2 0.124284
7 *1029:B *682:1 1.4
*END

*D_NET *683 0.000616392

*CONN
*I *997:B I *C 47.415 111.795 *L 0.00284 *D NAND2X1
*I *1349:Y O *C 43.355 111.795 *L 0 *D AOI22X1

*CAP
1 *683:2 0.000308196
2 *683:3 0.000308196

*RES
1 *683:4 *1349:Y 1.4
2 *683:3 *683:4 1.4
3 *683:2 *683:3 1.74004
4 *683:1 *683:2 1.4
5 *997:B *683:1 1.4
*END

*D_NET *684 0.000626435

*CONN
*I *1035:C0 I *C 104.545 104.545 *L 0.00277 *D AOI221X1
*I *1350:Y O *C 101.355 105.125 *L 0 *D AO22XL

*CAP
1 *684:2 0.000272285
2 *684:3 0.000272285
3 *684:4 4.09329e-05
4 *684:5 4.09329e-05

*RES
1 *684:5 *1350:Y 1.4
2 *684:4 *684:5 0.248578
3 *684:3 *684:4 1.4
4 *684:2 *684:3 1.36711
5 *684:1 *684:2 1.4
6 *1035:C0 *684:1 1.4
*END

*D_NET *685 0.00148747

*CONN
*I *1039:A0 I *C 75.545 96.425 *L 0.00157 *D AOI22XL
*I *1351:Y O *C 75.255 105.125 *L 0 *D AO22XL

*CAP
1 *685:2 2.62548e-05
2 *685:3 2.62548e-05
3 *685:4 0.000717479
4 *685:5 0.000717479

*RES
1 *685:5 *1351:Y 1.4
2 *685:4 *685:5 3.72865
3 *685:3 *685:4 1.4
4 *685:2 *685:3 0.124289
5 *685:1 *685:2 1.4
6 *1039:A0 *685:1 1.4
*END

*D_NET *686 0.000635442

*CONN
*I *1118:A1 I *C 27.405 68.295 *L 0.00278 *D AOI21X1
*I *1352:Y O *C 30.885 68.585 *L 0 *D AO22XL

*CAP
1 *686:2 0.000292057
2 *686:3 0.000292057
3 *686:4 2.56639e-05
4 *686:5 2.56639e-05

*RES
1 *686:5 *1352:Y 1.4
2 *686:4 *686:5 0.124283
3 *686:3 *686:4 1.4
4 *686:2 *686:3 1.49139
5 *686:1 *686:2 1.4
6 *1118:A1 *686:1 1.4
*END

*D_NET *687 0.000542902

*CONN
*I *1119:A I *C 27.405 65.395 *L 0.0017 *D MXI2XL
*I *1353:Y O *C 24.505 64.815 *L 0 *D AO22XL

*CAP
1 *687:1 2.56639e-05
2 *687:2 2.56639e-05
3 *687:3 0.00022304
4 *687:4 0.00022304
5 *687:5 2.2747e-05
6 *687:6 2.2747e-05

*RES
1 *687:6 *1353:Y 1.4
2 *687:5 *687:6 0.124284
3 *687:4 *687:5 1.4
4 *687:3 *687:4 1.24283
5 *687:2 *687:3 1.4
6 *687:1 *687:2 0.124283
7 *1119:A *687:1 1.4
*END

*D_NET *688 0.000942537

*CONN
*I *1119:B I *C 28.57 65.735 *L 0.00164 *D MXI2XL
*I *1354:Y O *C 33.205 64.815 *L 0 *D AO22XL

*CAP
1 *688:1 4.42482e-07
2 *688:2 5.61952e-05
3 *688:3 5.57527e-05
4 *688:4 0.00038941
5 *688:5 0.00038941
6 *688:6 2.56639e-05
7 *688:7 2.56639e-05

*RES
1 *688:7 *1354:Y 1.4
2 *688:6 *688:7 0.124283
3 *688:5 *688:6 1.4
4 *688:4 *688:5 1.98852
5 *688:3 *688:4 1.4
6 *688:2 *688:3 0.269993
7 *688:1 *688:2 0.0021428
8 *1119:B *688:1 1.4
*END

*D_NET *689 0.00070406

*CONN
*I *1355:A I *C 31.465 31.465 *L 0.00157 *D NAND2XL
*I *1356:Y O *C 31.755 33.495 *L 0 *D MXI2XL

*CAP
1 *689:2 7.56469e-05
2 *689:3 7.56469e-05
3 *689:4 0.00017552
4 *689:5 0.00017552
5 *689:6 0.000100863
6 *689:7 0.000100863

*RES
1 *689:8 *1356:Y 1.4
2 *689:7 *689:8 1.4
3 *689:6 *689:7 0.497132
4 *689:5 *689:6 1.4
5 *689:4 *689:5 0.87002
6 *689:3 *689:4 1.4
7 *689:2 *689:3 0.372849
8 *689:1 *689:2 1.4
9 *1355:A *689:1 1.4
*END

*D_NET *690 0.00150983

*CONN
*I *1234:D I *C 26.535 28.855 *L 0.00183 *D SDFFQX1
*I *1355:Y O *C 32.045 32.045 *L 0 *D NAND2XL

*CAP
1 *690:1 0.000275818
2 *690:2 0.000275818
3 *690:3 0.000479097
4 *690:4 0.000479097

*RES
1 *690:5 *1355:Y 1.4
2 *690:4 *690:5 1.4
3 *690:3 *690:4 2.36138
4 *690:2 *690:3 1.4
5 *690:1 *690:2 1.36717
6 *1234:D *690:1 1.4
*END

*D_NET *691 0.0166638

*CONN
*I *763:SI I *C 117.885 65.395 *L 0.00172 *D SDFFQX1
*I *748:SI I *C 109.475 65.395 *L 0.00172 *D SDFFQX1
*I *733:D I *C 105.125 73.225 *L 0.00183 *D SDFFQX1
*I *853:D I *C 101.355 75.835 *L 0.00181 *D SDFFQXL
*I *778:SI I *C 94.105 75.835 *L 0.00172 *D SDFFQX1
*I *868:SI I *C 106.285 78.445 *L 0.00169 *D SDFFQXL
*I *931:Y O *C 101.645 80.475 *L 0 *D AO21X1
*I *823:SI I *C 92.075 73.225 *L 0.00169 *D SDFFQXL
*I *898:SI I *C 85.695 75.835 *L 0.00169 *D SDFFQXL
*I *913:D I *C 85.115 70.615 *L 0.00181 *D SDFFQXL
*I *793:SI I *C 87.145 81.055 *L 0.00172 *D SDFFQX1
*I *883:D I *C 96.135 65.395 *L 0.00181 *D SDFFQXL
*I *838:SI I *C 84.825 81.055 *L 0.00172 *D SDFFQX1
*I *919:A I *C 97.585 63.075 *L 0.00273 *D CLKINVX1
*I *808:SI I *C 96.425 83.665 *L 0.00169 *D SDFFQXL

*CAP
1 *691:1 2.48248e-05
2 *691:2 2.48248e-05
3 *691:3 0.000639771
4 *691:4 0.000639771
5 *691:5 0.000645445
6 *691:6 0.00062062
7 *691:7 2.48248e-05
8 *691:8 0.000330916
9 *691:10 0.000330916
10 *691:11 2.48248e-05
11 *691:12 0.000148949
12 *691:13 0.000124124
13 *691:15 0.00032959
14 *691:16 0.00032959
15 *691:17 9.38365e-05
16 *691:18 0.000140755
17 *691:19 4.69183e-05
18 *691:21 0.000731832
19 *691:22 7.84106e-05
20 *691:23 0.000653422
21 *691:24 0.000140755
22 *691:25 4.69183e-05
23 *691:26 0.000140755
24 *691:27 9.38365e-05
25 *691:28 0.000391697
26 *691:30 0.000187673
27 *691:31 0.000339423
28 *691:32 5.22737e-05
29 *691:33 0.000601148
30 *691:34 0.00025805
31 *691:35 2.38897e-05
32 *691:36 0.00019653
33 *691:37 0.000653422
34 *691:38 0.000182958
35 *691:39 0.000117296
36 *691:40 2.38897e-05
37 *691:41 0.00034437
38 *691:42 4.69183e-05
39 *691:43 5.22737e-05
40 *691:44 0.000182958
41 *691:45 0.000235232
42 *691:47 0.00014784
43 *691:49 0.000529681
44 *691:50 0.000375346
45 *691:51 2.34591e-05
46 *691:52 0.000235232
47 *691:53 2.56958e-05
48 *691:54 0.000482763
49 *691:55 0.000156821
50 *691:56 0.000375346
51 *691:57 2.34591e-05
52 *691:58 0.00053956
53 *691:59 2.56958e-05
54 *691:60 2.56958e-05
55 *691:61 0.000156821
56 *691:62 0.000156821
57 *691:64 0.000727233
58 *691:65 9.85602e-05
59 *691:66 0.000231262
60 *691:68 0.000156821
61 *691:69 5.22737e-05
62 *691:70 0.000187673
63 *691:71 9.85602e-05
64 *691:72 4.92801e-05
65 *691:73 0.000205566
66 *691:76 5.22737e-05
67 *691:77 7.84106e-05
68 *691:78 0.000436828
69 *691:79 4.92801e-05
70 *691:80 4.92801e-05
71 *691:83 7.84106e-05
72 *691:84 0.000436828
73 *691:86 4.92801e-05
74 *691:89 2.46401e-05
75 *691:92 2.46401e-05

*RES
1 *691:92 *808:SI 1.4
2 *691:89 *691:92 0.124289
3 *691:88 *919:A 1.4
4 *691:86 *838:SI 1.4
5 *691:84 *691:89 1.4
6 *691:83 *691:88 1.4
7 *691:82 *883:D 1.4
8 *691:80 *691:86 0.248577
9 *691:79 *793:SI 1.4
10 *691:78 *691:84 2.11281
11 *691:77 *691:83 0.372866
12 *691:76 *691:82 1.4
13 *691:75 *913:D 1.4
14 *691:73 *691:80 1.4
15 *691:72 *691:79 0.248577
16 *691:71 *691:78 1.4
17 *691:70 *691:77 1.4
18 *691:69 *691:76 0.248578
19 *691:68 *691:75 1.4
20 *691:67 *898:SI 1.4
21 *691:66 *691:73 0.994263
22 *691:66 *691:72 1.4
23 *691:65 *691:71 0.497155
24 *691:64 *691:70 0.994305
25 *691:64 *691:69 1.4
26 *691:62 *691:68 0.745732
27 *691:61 *691:67 1.4
28 *691:60 *691:66 0.124283
29 *691:59 *691:65 1.4
30 *691:58 *691:64 2.85863
31 *691:57 *823:SI 1.4
32 *691:56 *691:62 1.4
33 *691:55 *691:61 0.745732
34 *691:54 *691:60 1.4
35 *691:53 *691:59 0.124283
36 *691:52 *691:58 1.4
37 *691:51 *691:57 0.124288
38 *691:50 *691:56 1.98861
39 *691:49 *691:55 1.4
40 *691:49 *691:54 2.48577
41 *691:47 *691:53 1.4
42 *691:45 *691:52 1.1186
43 *691:44 *691:51 1.4
44 *691:43 *691:50 1.4
45 *691:42 *691:49 0.248576
46 *691:41 *931:Y 1.4
47 *691:41 *691:47 0.745732
48 *691:40 *868:SI 1.4
49 *691:39 *691:45 1.4
50 *691:38 *691:44 0.870021
51 *691:37 *691:43 0.248578
52 *691:37 *691:42 1.4
53 *691:36 *691:41 0.99431
54 *691:35 *691:40 0.124286
55 *691:34 *691:39 0.62144
56 *691:34 *691:38 1.4
57 *691:33 *691:37 2.85864
58 *691:32 *691:36 1.4
59 *691:31 *691:35 1.4
60 *691:30 *691:34 0.745728
61 *691:30 *691:33 1.4
62 *691:28 *691:32 0.248578
63 *691:28 *691:31 1.74004
64 *691:27 *691:30 0.248576
65 *691:27 *778:SI 1.4
66 *691:26 *691:28 1.4
67 *691:25 *691:27 0.248576
68 *691:24 *691:26 0.745728
69 *691:23 *691:25 1.4
70 *691:22 *691:24 1.4
71 *691:21 *691:23 3.10722
72 *691:21 *691:22 0.372866
73 *691:19 *691:21 1.4
74 *691:18 *853:D 1.4
75 *691:18 *691:19 0.248576
76 *691:17 *691:18 0.497152
77 *691:16 *691:17 1.4
78 *691:15 *691:16 1.61575
79 *691:13 *691:15 1.4
80 *691:12 *733:D 1.4
81 *691:12 *691:13 0.621444
82 *691:11 *691:12 0.124289
83 *691:10 *691:11 1.4
84 *691:8 *691:10 1.86433
85 *691:7 *748:SI 1.4
86 *691:6 *691:8 1.4
87 *691:5 *691:7 0.124289
88 *691:5 *691:6 3.10722
89 *691:4 *691:5 1.4
90 *691:3 *691:4 3.60437
91 *691:2 *691:3 1.4
92 *691:1 *691:2 0.124289
93 *763:SI *691:1 1.4
*END

*D_NET *692 0.0122702

*CONN
*I *789:SI I *C 78.155 99.325 *L 0.00172 *D SDFFQX1
*I *894:SI I *C 80.185 101.935 *L 0.00172 *D SDFFQX1
*I *849:D I *C 77.285 112.375 *L 0.00181 *D SDFFQXL
*I *909:D I *C 75.835 107.155 *L 0.00181 *D SDFFQXL
*I *834:SI I *C 76.415 117.595 *L 0.00172 *D SDFFQX1
*I *744:SI I *C 77.285 120.205 *L 0.00172 *D SDFFQX1
*I *759:SI I *C 73.805 114.985 *L 0.00172 *D SDFFQX1
*I *774:SI I *C 77.575 122.815 *L 0.00172 *D SDFFQX1
*I *819:SI I *C 68.585 122.815 *L 0.00169 *D SDFFQXL
*I *804:SI I *C 68.295 120.205 *L 0.00172 *D SDFFQX1
*I *729:D I *C 65.105 117.595 *L 0.00183 *D SDFFQX1
*I *879:D I *C 64.235 112.375 *L 0.00181 *D SDFFQXL
*I *864:SI I *C 64.525 109.765 *L 0.00169 *D SDFFQXL
*I *959:Y O *C 65.4775 99.615 *L 0 *D CLKINVX1

*CAP
1 *692:1 0.000290743
2 *692:2 0.000290743
3 *692:3 0.00018015
4 *692:4 0.00018015
5 *692:5 0.000322006
6 *692:6 0.000248086
7 *692:7 7.39202e-05
8 *692:8 0.000250959
9 *692:10 0.000250959
10 *692:11 0.000143341
11 *692:12 0.0004505
12 *692:13 0.00067575
13 *692:14 0.000126196
14 *692:15 0.000368591
15 *692:17 0.000126196
16 *692:18 0.000151435
17 *692:19 6.14318e-05
18 *692:20 7.57177e-05
19 *692:21 0.000201914
20 *692:22 6.14318e-05
21 *692:23 0.000184295
22 *692:25 0.000126196
23 *692:27 0.000389068
24 *692:29 0.000184295
25 *692:30 0.000204773
26 *692:31 7.57177e-05
27 *692:32 0.000184295
28 *692:33 5.04785e-05
29 *692:34 7.57177e-05
30 *692:35 0.000100957
31 *692:36 0.000832895
32 *692:38 0.000100957
33 *692:39 2.04773e-05
34 *692:40 0.000807656
35 *692:43 2.04773e-05
36 *692:44 2.04773e-05
37 *692:45 2.52392e-05
38 *692:48 2.04773e-05
39 *692:49 0.000204773
40 *692:51 0.00022525
41 *692:53 2.04773e-05
42 *692:54 0.000277632
43 *692:55 0.000277632
44 *692:56 0.000163818
45 *692:57 0.000532409
46 *692:59 0.000552886
47 *692:60 7.57177e-05
48 *692:61 0.000962897
49 *692:62 7.57177e-05
50 *692:63 5.04785e-05
51 *692:64 0.000778601
52 *692:66 5.04785e-05
53 *692:67 2.62548e-05
54 *692:70 2.62548e-05
55 *692:72 7.10148e-06
56 *692:73 7.10148e-06

*RES
1 *692:73 *959:Y 1.4
2 *692:72 *692:73 0.0364295
3 *692:70 *692:72 1.4
4 *692:69 *864:SI 1.4
5 *692:67 *692:70 0.124289
6 *692:66 *692:69 1.4
7 *692:65 *879:D 1.4
8 *692:64 *692:67 1.4
9 *692:63 *692:66 0.248566
10 *692:62 *692:65 1.4
11 *692:61 *692:64 4.35001
12 *692:61 *692:63 1.4
13 *692:60 *692:62 0.372849
14 *692:59 *692:61 1.11855
15 *692:59 *692:60 1.4
16 *692:57 *692:59 2.2371
17 *692:57 *729:D 1.4
18 *692:56 *692:57 0.994267
19 *692:55 *692:56 1.4
20 *692:54 *692:55 1.36711
21 *692:53 *692:54 1.4
22 *692:51 *692:53 0.124283
23 *692:51 *804:SI 1.4
24 *692:49 *692:51 1.24283
25 *692:48 *819:SI 1.4
26 *692:45 *692:49 1.4
27 *692:44 *692:48 0.124283
28 *692:43 *774:SI 1.4
29 *692:42 *759:SI 1.4
30 *692:40 *692:45 0.124283
31 *692:40 *692:44 1.4
32 *692:39 *692:43 0.124283
33 *692:38 *692:42 1.4
34 *692:37 *744:SI 1.4
35 *692:36 *692:40 3.85277
36 *692:36 *692:39 1.4
37 *692:35 *692:38 0.497132
38 *692:34 *692:37 1.4
39 *692:33 *692:36 0.248566
40 *692:32 *692:35 1.4
41 *692:31 *692:34 0.372849
42 *692:30 *692:33 1.4
43 *692:29 *692:32 1.11855
44 *692:27 *692:31 1.4
45 *692:27 *692:30 1.24283
46 *692:25 *692:29 1.4
47 *692:24 *834:SI 1.4
48 *692:23 *692:27 1.11855
49 *692:22 *909:D 1.4
50 *692:21 *692:25 0.621414
51 *692:21 *692:24 1.4
52 *692:20 *692:23 1.4
53 *692:19 *692:22 0.37285
54 *692:18 *692:21 0.372849
55 *692:18 *692:20 0.372849
56 *692:17 *692:19 1.4
57 *692:15 *692:18 1.4
58 *692:14 *692:17 0.621414
59 *692:13 *849:D 1.4
60 *692:13 *692:15 2.2371
61 *692:12 *692:14 1.4
62 *692:12 *692:13 1.86425
63 *692:11 *692:12 0.869984
64 *692:10 *692:11 1.4
65 *692:8 *692:10 1.24283
66 *692:7 *894:SI 1.4
67 *692:6 *692:8 1.4
68 *692:5 *692:7 0.372866
69 *692:5 *692:6 1.36718
70 *692:4 *692:5 1.4
71 *692:3 *692:4 0.869983
72 *692:2 *692:3 1.4
73 *692:1 *692:2 1.49146
74 *789:SI *692:1 1.4
*END

*D_NET *693 0.0135612

*CONN
*I *821:SI I *C 102.515 122.815 *L 0.00169 *D SDFFQXL
*I *806:SI I *C 105.415 120.205 *L 0.00169 *D SDFFQXL
*I *731:D I *C 105.705 114.985 *L 0.00183 *D SDFFQX1
*I *761:SI I *C 102.805 117.595 *L 0.00172 *D SDFFQX1
*I *851:D I *C 100.195 114.985 *L 0.00181 *D SDFFQXL
*I *836:SI I *C 99.905 112.375 *L 0.00169 *D SDFFQXL
*I *881:D I *C 95.845 112.375 *L 0.00181 *D SDFFQXL
*I *866:SI I *C 100.775 109.765 *L 0.00169 *D SDFFQXL
*I *920:A I *C 97.295 101.645 *L 0.00273 *D CLKINVX1
*I *791:SI I *C 89.465 112.375 *L 0.00172 *D SDFFQX1
*I *963:Y O *C 98.745 96.135 *L 0 *D AO21X1
*I *896:SI I *C 88.305 101.935 *L 0.00172 *D SDFFQX1
*I *746:SI I *C 86.275 120.205 *L 0.00172 *D SDFFQX1
*I *911:D I *C 87.435 104.545 *L 0.00181 *D SDFFQXL
*I *776:SI I *C 88.595 122.815 *L 0.00172 *D SDFFQX1

*CAP
1 *693:1 2.04665e-05
2 *693:2 2.04665e-05
3 *693:3 0.000229735
4 *693:4 0.000229735
5 *693:5 0.000183624
6 *693:6 0.000367249
7 *693:8 0.000183624
8 *693:9 0.000223892
9 *693:10 1.91752e-05
10 *693:11 0.000204716
11 *693:12 0.000146899
12 *693:13 2.04665e-05
13 *693:14 0.000165262
14 *693:15 2.04665e-05
15 *693:17 1.83624e-05
16 *693:19 0.000449061
17 *693:20 0.000474079
18 *693:21 2.04665e-05
19 *693:22 2.50188e-05
20 *693:23 2.04665e-05
21 *693:24 0.000163732
22 *693:26 0.000225131
23 *693:28 6.13994e-05
24 *693:29 0.000125094
25 *693:30 0.000250188
26 *693:31 0.000163732
27 *693:32 0.000225169
28 *693:33 0.000163732
29 *693:34 0.000760149
30 *693:35 0.000100075
31 *693:36 0.00020015
32 *693:37 0.000760149
33 *693:38 6.13994e-05
34 *693:39 0.00020015
35 *693:40 2.56958e-05
36 *693:41 0.000102332
37 *693:42 4.09329e-05
38 *693:43 0.000102783
39 *693:44 4.09329e-05
40 *693:46 4.09329e-05
41 *693:47 7.70873e-05
42 *693:48 2.46401e-05
43 *693:49 0.000550413
44 *693:51 0.000443521
45 *693:52 7.39202e-05
46 *693:53 0.000625469
47 *693:54 0.000443521
48 *693:55 4.92801e-05
49 *693:57 4.09329e-05
50 *693:58 7.50563e-05
51 *693:59 5.13916e-05
52 *693:60 0.000796569
53 *693:61 4.09329e-05
54 *693:62 0.000511662
55 *693:63 5.13916e-05
56 *693:64 0.000796569
57 *693:66 0.000511662
58 *693:68 0.00024014
59 *693:69 0.000225169
60 *693:71 0.0002155
61 *693:72 2.46401e-05
62 *693:73 2.50188e-05
63 *693:74 0.00020015
64 *693:75 7.50563e-05
65 *693:77 0.000184198
66 *693:79 7.50563e-05
67 *693:80 0.000184198
68 *693:82 2.04665e-05
69 *693:83 2.50188e-05
70 *693:84 2.04665e-05
71 *693:85 2.50188e-05

*RES
1 *693:87 *776:SI 1.4
2 *693:85 *693:87 1.4
3 *693:84 *911:D 1.4
4 *693:83 *693:85 0.124283
5 *693:82 *693:84 0.124289
6 *693:80 *693:83 1.4
7 *693:79 *693:82 1.4
8 *693:78 *746:SI 1.4
9 *693:77 *693:80 1.1186
10 *693:75 *693:79 0.372849
11 *693:74 *693:78 1.4
12 *693:73 *693:77 1.4
13 *693:72 *896:SI 1.4
14 *693:71 *693:75 1.4
15 *693:69 *693:74 0.994263
16 *693:69 *693:73 0.124283
17 *693:68 *693:72 0.124289
18 *693:68 *693:71 1.1186
19 *693:67 *963:Y 1.4
20 *693:66 *693:69 1.4
21 *693:64 *693:68 1.4
22 *693:63 *693:67 1.4
23 *693:62 *693:66 3.10722
24 *693:61 *791:SI 1.4
25 *693:60 *693:64 3.85277
26 *693:59 *693:63 0.248566
27 *693:58 *693:62 1.4
28 *693:57 *693:61 0.248578
29 *693:55 *693:60 1.4
30 *693:54 *693:59 1.4
31 *693:53 *693:58 0.372849
32 *693:53 *693:57 1.4
33 *693:52 *920:A 1.4
34 *693:52 *693:55 0.248577
35 *693:51 *693:54 2.2372
36 *693:49 *693:53 2.73422
37 *693:48 *693:52 0.124289
38 *693:47 *693:51 1.4
39 *693:46 *866:SI 1.4
40 *693:44 *693:49 1.4
41 *693:43 *693:48 1.4
42 *693:43 *693:47 0.372849
43 *693:42 *693:46 0.248578
44 *693:41 *881:D 1.4
45 *693:41 *693:44 0.248578
46 *693:40 *693:43 0.124283
47 *693:39 *693:42 1.4
48 *693:38 *693:41 0.372866
49 *693:37 *693:40 1.4
50 *693:36 *693:39 0.994263
51 *693:35 *693:38 1.4
52 *693:34 *693:37 4.35011
53 *693:33 *693:36 1.4
54 *693:32 *693:35 0.497132
55 *693:32 *693:34 1.4
56 *693:31 *693:33 0.99431
57 *693:30 *693:32 0.621414
58 *693:30 *693:31 1.4
59 *693:29 *693:30 0.621414
60 *693:28 *693:29 1.4
61 *693:26 *693:28 0.372866
62 *693:26 *836:SI 1.4
63 *693:24 *693:26 0.99431
64 *693:23 *851:D 1.4
65 *693:22 *693:24 1.4
66 *693:21 *693:23 0.124289
67 *693:20 *693:22 0.124283
68 *693:20 *693:21 1.4
69 *693:19 *693:20 2.36138
70 *693:17 *693:19 1.4
71 *693:15 *761:SI 1.4
72 *693:14 *693:17 0.124288
73 *693:14 *731:D 1.4
74 *693:13 *693:15 0.124289
75 *693:12 *693:14 0.994304
76 *693:11 *693:13 1.4
77 *693:10 *693:12 1.4
78 *693:9 *693:11 1.11855
79 *693:9 *693:10 0.124283
80 *693:8 *693:9 1.4
81 *693:6 *693:8 1.24288
82 *693:6 *806:SI 1.4
83 *693:5 *693:6 1.24288
84 *693:4 *693:5 1.4
85 *693:3 *693:4 1.24283
86 *693:2 *693:3 1.4
87 *693:1 *693:2 0.124289
88 *821:SI *693:1 1.4
*END

*D_NET *694 0.0132885

*CONN
*I *802:SI I *C 24.795 117.595 *L 0.00172 *D SDFFQX1
*I *727:D I *C 23.055 114.985 *L 0.00183 *D SDFFQX1
*I *757:SI I *C 19.865 107.155 *L 0.00172 *D SDFFQX1
*I *877:D I *C 17.545 112.375 *L 0.00181 *D SDFFQXL
*I *742:SI I *C 20.735 99.325 *L 0.00172 *D SDFFQX1
*I *787:SI I *C 11.455 99.325 *L 0.00172 *D SDFFQX1
*I *892:SI I *C 11.455 101.935 *L 0.00172 *D SDFFQX1
*I *772:SI I *C 11.455 109.765 *L 0.00172 *D SDFFQX1
*I *907:D I *C 10.005 96.715 *L 0.00181 *D SDFFQXL
*I *970:Y O *C 25.665 99.905 *L 0 *D OAI21X1
*I *924:A I *C 34.655 96.425 *L 0.00273 *D CLKINVX1
*I *817:SI I *C 34.365 112.375 *L 0.00172 *D SDFFQX1
*I *847:D I *C 34.075 101.935 *L 0.00181 *D SDFFQXL
*I *862:SI I *C 41.615 114.985 *L 0.00172 *D SDFFQX1
*I *832:SI I *C 41.905 117.595 *L 0.00172 *D SDFFQX1

*CAP
1 *694:2 5.30485e-05
2 *694:3 5.30485e-05
3 *694:4 0.000242018
4 *694:5 0.000242018
5 *694:6 5.30485e-05
6 *694:7 0.00024756
7 *694:8 8.64351e-05
8 *694:9 0.000194511
9 *694:10 8.64351e-05
10 *694:11 6.9148e-05
11 *694:13 0.000380314
12 *694:14 0.000141463
13 *694:15 0.000843281
14 *694:16 0.000141463
15 *694:18 0.000532115
16 *694:20 0.000652183
17 *694:22 6.11421e-05
18 *694:23 0.000692944
19 *694:24 2.10222e-05
20 *694:25 0.0001892
21 *694:26 0.000101904
22 *694:27 2.10222e-05
23 *694:29 0.000687698
24 *694:31 0.0001892
25 *694:32 0.000346472
26 *694:33 0.000498498
27 *694:35 0.0001892
28 *694:36 0.000346472
29 *694:39 2.10222e-05
30 *694:40 2.10222e-05
31 *694:41 0.000734636
32 *694:43 0.00075934
33 *694:44 2.4704e-05
34 *694:45 0.000174433
35 *694:46 0.000299029
36 *694:47 0.000930256
37 *694:48 0.000299029
38 *694:49 0.000933863
39 *694:50 2.4704e-05
40 *694:52 0.00017804
41 *694:54 2.4704e-05
42 *694:55 0.00055035
43 *694:57 0.000572364
44 *694:59 2.2014e-05
45 *694:61 0.00017804
46 *694:63 0.00017804

*RES
1 *694:63 *832:SI 1.4
2 *694:61 *694:63 1.11855
3 *694:60 *862:SI 1.4
4 *694:59 *694:61 1.4
5 *694:57 *694:60 1.4
6 *694:57 *694:59 0.124289
7 *694:56 *847:D 1.4
8 *694:55 *694:57 3.10722
9 *694:54 *694:56 1.4
10 *694:52 *694:55 1.4
11 *694:50 *694:54 0.124283
12 *694:49 *817:SI 1.4
13 *694:49 *694:52 1.11855
14 *694:48 *924:A 1.4
15 *694:47 *694:50 1.4
16 *694:47 *694:49 4.47424
17 *694:46 *694:48 1.49146
18 *694:45 *694:47 0.870021
19 *694:44 *694:46 1.4
20 *694:43 *694:45 1.4
21 *694:43 *694:44 0.124283
22 *694:41 *694:43 3.72849
23 *694:40 *970:Y 1.4
24 *694:40 *694:41 1.4
25 *694:39 *694:40 0.124283
26 *694:36 *694:39 1.4
27 *694:35 *907:D 1.4
28 *694:33 *772:SI 1.4
29 *694:32 *694:36 2.11281
30 *694:31 *694:35 1.11854
31 *694:29 *892:SI 1.4
32 *694:29 *694:33 3.35572
33 *694:27 *694:32 1.4
34 *694:26 *694:31 1.4
35 *694:25 *787:SI 1.4
36 *694:25 *694:29 1.11854
37 *694:24 *742:SI 1.4
38 *694:24 *694:27 0.124283
39 *694:23 *694:26 0.621416
40 *694:23 *694:25 1.4
41 *694:22 *694:24 1.4
42 *694:20 *694:23 3.60421
43 *694:20 *694:22 0.372849
44 *694:19 *877:D 1.4
45 *694:18 *694:20 1.4
46 *694:16 *694:19 1.4
47 *694:15 *694:18 3.35568
48 *694:15 *757:SI 1.4
49 *694:14 *694:16 0.994268
50 *694:13 *694:15 2.23718
51 *694:13 *694:14 1.4
52 *694:11 *694:13 0.497151
53 *694:10 *727:D 1.4
54 *694:9 *694:11 1.4
55 *694:8 *694:10 0.621438
56 *694:7 *694:9 1.36712
57 *694:7 *694:8 1.4
58 *694:6 *694:7 0.372851
59 *694:5 *694:6 1.4
60 *694:4 *694:5 1.74003
61 *694:3 *694:4 1.4
62 *694:2 *694:3 0.372851
63 *694:1 *694:2 1.4
64 *802:SI *694:1 1.4
*END

*D_NET *695 0.00460696

*CONN
*I *1365:B I *C 72.645 16.385 *L 0.00285 *D NAND3X1
*I *1366:A I *C 71.775 18.125 *L 0.00177 *D OR3X1
*I *1381:B I *C 72.355 13.195 *L 0.00171 *D NOR2XL
*I *1382:A I *C 75.255 13.195 *L 0.00178 *D AND2X1
*I *1367:SI I *C 73.805 5.365 *L 0.00172 *D SDFFQX1
*I *1370:Q O *C 82.795 17.835 *L 0 *D SDFFQX1
*I *1376:B1 I *C 78.735 10.875 *L 0.00283 *D AOI22X1

*CAP
1 *695:1 0.000120826
2 *695:2 0.000120826
3 *695:3 0.00012464
4 *695:4 6.232e-05
5 *695:5 6.232e-05
6 *695:6 0.000342341
7 *695:8 0.000342341
8 *695:10 0.000103867
9 *695:11 0.00012464
10 *695:12 8.30933e-05
11 *695:13 0.000367471
12 *695:14 0.000543719
13 *695:16 0.000281799
14 *695:18 0.000543719
15 *695:20 0.000273008
16 *695:21 1.81939e-05
17 *695:24 0.000273008
18 *695:25 0.000136504
19 *695:26 0.000236521
20 *695:27 0.000136504
21 *695:28 0.000236521
22 *695:29 3.63879e-05
23 *695:31 3.63879e-05

*RES
1 *695:33 *1376:B1 1.4
2 *695:31 *695:33 1.4
3 *695:30 *1370:Q 1.4
4 *695:29 *695:31 0.248567
5 *695:28 *695:30 1.4
6 *695:27 *695:29 1.4
7 *695:26 *695:28 1.61568
8 *695:25 *695:27 0.99431
9 *695:24 *695:26 1.4
10 *695:21 *695:25 1.4
11 *695:20 *695:24 1.98862
12 *695:18 *1367:SI 1.4
13 *695:17 *1382:A 1.4
14 *695:16 *695:21 0.124283
15 *695:16 *695:20 1.4
16 *695:15 *1381:B 1.4
17 *695:14 *695:18 3.35578
18 *695:13 *695:17 1.4
19 *695:13 *695:16 1.61574
20 *695:12 *695:15 1.4
21 *695:11 *695:14 1.4
22 *695:11 *695:13 0.621444
23 *695:10 *695:12 0.497155
24 *695:10 *695:11 0.124289
25 *695:8 *695:10 1.4
26 *695:7 *1366:A 1.4
27 *695:6 *695:8 2.1129
28 *695:5 *695:7 1.4
29 *695:4 *695:6 1.4
30 *695:3 *695:5 0.372866
31 *695:3 *695:4 0.372866
32 *695:2 *695:3 1.4
33 *695:1 *695:2 0.74573
34 *1365:B *695:1 1.4
*END

*D_NET *696 0.0039868

*CONN
*I *1382:B I *C 74.675 13.195 *L 0.00172 *D AND2X1
*I *1381:A I *C 72.645 12.905 *L 0.00162 *D NOR2XL
*I *1365:A I *C 72.935 16.095 *L 0.00264 *D NAND3X1
*I *1368:Q O *C 65.105 16.385 *L 0 *D SDFFQX1
*I *1366:C I *C 72.645 18.125 *L 0.00165 *D OR3X1
*I *1370:SI I *C 76.125 18.415 *L 0.00172 *D SDFFQX1
*I *1372:S0 I *C 61.625 13.195 *L 0.00372 *D MXI2XL

*CAP
1 *696:1 2.01377e-05
2 *696:2 2.01377e-05
3 *696:3 2.07733e-05
4 *696:4 0.000145413
5 *696:5 0.000201377
6 *696:6 0.00012464
7 *696:7 0.000201377
8 *696:9 4.15467e-05
9 *696:11 0.000103867
10 *696:12 0.000161102
11 *696:13 0.0006232
12 *696:14 0.00018124
13 *696:15 2.01377e-05
14 *696:16 0.00056088
15 *696:17 2.01377e-05
16 *696:18 8.30933e-05
17 *696:19 2.01377e-05
18 *696:20 0.000241653
19 *696:21 0.000166187
20 *696:22 8.30933e-05
21 *696:24 4.02754e-05
22 *696:25 0.000201377
23 *696:26 0.000166187
24 *696:29 0.00024928
25 *696:32 0.00024928
26 *696:34 2.01377e-05
27 *696:35 2.01377e-05

*RES
1 *696:35 *1372:S0 1.4
2 *696:34 *696:35 0.124288
3 *696:32 *696:34 1.4
4 *696:30 *1370:SI 1.4
5 *696:29 *696:32 1.49147
6 *696:27 *1366:C 1.4
7 *696:26 *696:30 1.4
8 *696:25 *696:29 1.4
9 *696:24 *1368:Q 1.4
10 *696:22 *696:27 1.4
11 *696:21 *696:26 0.99431
12 *696:20 *696:25 1.24288
13 *696:20 *696:24 0.248577
14 *696:19 *1365:A 1.4
15 *696:18 *696:22 0.497155
16 *696:17 *696:21 1.4
17 *696:16 *696:20 1.4
18 *696:15 *696:19 0.124288
19 *696:14 *696:18 1.4
20 *696:14 *696:17 0.124288
21 *696:13 *696:16 3.3558
22 *696:13 *696:15 1.4
23 *696:12 *696:14 0.994306
24 *696:11 *696:13 0.372866
25 *696:11 *696:12 1.4
26 *696:9 *696:11 0.248578
27 *696:8 *1381:A 1.4
28 *696:7 *696:9 1.4
29 *696:6 *696:8 1.4
30 *696:5 *696:7 1.24288
31 *696:4 *696:6 0.745733
32 *696:4 *696:5 1.4
33 *696:3 *696:4 0.124289
34 *696:2 *696:3 1.4
35 *696:1 *696:2 0.124288
36 *1382:B *696:1 1.4
*END

*D_NET *697 0.00105987

*CONN
*I *1369:A1N I *C 77.865 7.975 *L 0.0017 *D OAI2BB1X1
*I *1378:A I *C 75.255 10.875 *L 0.00162 *D NOR2XL
*I *1382:Y O *C 75.835 12.615 *L 0 *D AND2X1

*CAP
1 *697:2 2.07733e-05
2 *697:3 2.07733e-05
3 *697:4 0.000100689
4 *697:5 0.000100689
5 *697:6 0.000103867
6 *697:7 0.000103867
7 *697:8 0.000100689
8 *697:9 0.000221515
9 *697:10 0.000120826
10 *697:11 6.232e-05
11 *697:12 2.07733e-05
12 *697:13 6.232e-05
13 *697:14 2.07733e-05

*RES
1 *697:16 *1382:Y 1.4
2 *697:15 *1378:A 1.4
3 *697:14 *697:16 1.4
4 *697:13 *697:15 1.4
5 *697:12 *697:14 0.124289
6 *697:11 *697:13 0.372866
7 *697:10 *697:12 1.4
8 *697:9 *697:11 1.4
9 *697:9 *697:10 0.74573
10 *697:8 *697:9 0.621441
11 *697:7 *697:8 1.4
12 *697:6 *697:7 0.621444
13 *697:5 *697:6 1.4
14 *697:4 *697:5 0.621441
15 *697:3 *697:4 1.4
16 *697:2 *697:3 0.124289
17 *697:1 *697:2 1.4
18 *1369:A1N *697:1 1.4
*END

*D_NET *698 0.00147788

*CONN
*I *1378:B I *C 74.965 10.585 *L 0.00171 *D NOR2XL
*I *1374:B I *C 70.615 10.585 *L 0.00171 *D NOR2XL
*I *1381:Y O *C 72.065 13.485 *L 0 *D NOR2XL

*CAP
1 *698:1 4.02754e-05
2 *698:2 4.02754e-05
3 *698:3 6.232e-05
4 *698:4 6.232e-05
5 *698:5 4.02754e-05
6 *698:6 0.000241653
7 *698:7 0.000201377
8 *698:8 0.00024928
9 *698:9 0.000145413
10 *698:10 0.00024928
11 *698:11 0.000145413

*RES
1 *698:13 *1381:Y 1.4
2 *698:12 *1374:B 1.4
3 *698:11 *698:13 1.4
4 *698:10 *698:12 1.4
5 *698:9 *698:11 0.870021
6 *698:8 *698:10 1.49147
7 *698:7 *698:9 1.4
8 *698:6 *698:8 1.4
9 *698:6 *698:7 1.24288
10 *698:5 *698:6 0.248577
11 *698:4 *698:5 1.4
12 *698:3 *698:4 0.372866
13 *698:2 *698:3 1.4
14 *698:1 *698:2 0.248577
15 *1378:B *698:1 1.4
*END

*D_NET *699 0.00324407

*CONN
*I *1376:B0 I *C 79.025 10.875 *L 0.00265 *D AOI22X1
*I *1380:Y O *C 66.265 11.165 *L 0 *D NOR3BX1
*I *1371:A0 I *C 72.065 7.685 *L 0.00268 *D OAI31X1
*I *1379:A I *C 61.915 10.875 *L 0.00273 *D INVX1

*CAP
1 *699:1 1.7063e-05
2 *699:2 1.7063e-05
3 *699:3 0.000388245
4 *699:4 0.000388245
5 *699:5 2.01377e-05
6 *699:6 0.000241653
7 *699:7 0.000519333
8 *699:8 0.000221515
9 *699:9 0.000519333
10 *699:10 0.000103867
11 *699:11 2.01377e-05
12 *699:12 0.000103867
13 *699:13 2.01377e-05
14 *699:15 0.0003116
15 *699:18 0.0003116
16 *699:19 2.01377e-05
17 *699:20 2.01377e-05

*RES
1 *699:20 *1379:A 1.4
2 *699:19 *699:20 0.124288
3 *699:18 *699:19 1.4
4 *699:15 *699:18 1.86433
5 *699:14 *1371:A0 1.4
6 *699:13 *1380:Y 1.4
7 *699:13 *699:15 1.4
8 *699:12 *699:14 1.4
9 *699:11 *699:13 0.124288
10 *699:10 *699:12 0.621444
11 *699:9 *699:11 1.4
12 *699:8 *699:10 1.4
13 *699:7 *699:9 3.10722
14 *699:6 *699:8 1.36717
15 *699:6 *699:7 1.4
16 *699:5 *699:6 0.124288
17 *699:4 *699:5 1.4
18 *699:3 *699:4 2.36147
19 *699:2 *699:3 1.4
20 *699:1 *699:2 0.124289
21 *1376:B0 *699:1 1.4
*END

*D_NET *700 0.000569988

*CONN
*I *1372:B I *C 61.33 13.535 *L 0.00164 *D MXI2XL
*I *1379:Y O *C 61.5425 10.875 *L 0 *D INVX1

*CAP
1 *700:1 3.47202e-07
2 *700:2 3.71506e-05
3 *700:3 3.68034e-05
4 *700:4 2.07733e-05
5 *700:5 2.07733e-05
6 *700:6 0.000221515
7 *700:7 0.00022707
8 *700:8 5.55523e-06

*RES
1 *700:8 *1379:Y 1.4
2 *700:7 *700:8 0.0342864
3 *700:6 *700:7 1.36717
4 *700:5 *700:6 1.4
5 *700:4 *700:5 0.124289
6 *700:3 *700:4 1.4
7 *700:2 *700:3 0.227148
8 *700:1 *700:2 0.0021429
9 *1372:B *700:1 1.4
*END

*D_NET *701 0.00137554

*CONN
*I *1373:A1 I *C 79.025 15.805 *L 0.00274 *D OAI21X1
*I *1376:A1 I *C 78.155 11.165 *L 0.0028 *D AOI22X1
*I *1378:Y O *C 74.675 10.295 *L 0 *D NOR2XL

*CAP
1 *701:2 5.58715e-05
2 *701:3 5.58715e-05
3 *701:4 0.000322204
4 *701:5 0.000382617
5 *701:7 6.04132e-05
6 *701:8 0.00024928
7 *701:9 0.00024928

*RES
1 *701:10 *1378:Y 1.4
2 *701:9 *701:10 1.4
3 *701:8 *701:9 1.49147
4 *701:7 *701:8 1.4
5 *701:5 *701:7 0.372865
6 *701:5 *1376:A1 1.4
7 *701:4 *701:5 1.98861
8 *701:3 *701:4 1.4
9 *701:2 *701:3 0.372853
10 *701:1 *701:2 1.4
11 *1373:A1 *701:1 1.4
*END

*D_NET *702 0.00366033

*CONN
*I *1373:A0 I *C 79.315 16.095 *L 0.00271 *D OAI21X1
*I *1374:A I *C 70.325 10.875 *L 0.00162 *D NOR2XL
*I *1377:Y O *C 68.295 18.705 *L 0 *D NAND4BXL
*I *1375:AN I *C 65.685 13.195 *L 0.00174 *D NOR2BXL

*CAP
1 *702:1 1.7063e-05
2 *702:2 1.7063e-05
3 *702:3 0.000572625
4 *702:4 0.000572625
5 *702:5 0.000241653
6 *702:6 0.000241653
7 *702:7 6.232e-05
8 *702:8 0.000207733
9 *702:9 0.000140964
10 *702:10 0.000145413
11 *702:11 0.000140964
12 *702:12 0.000422892
13 *702:14 0.000402754
14 *702:15 2.01377e-05
15 *702:17 0.00018696
16 *702:18 0.00018696
17 *702:19 4.02754e-05
18 *702:20 4.02754e-05

*RES
1 *702:20 *1375:AN 1.4
2 *702:19 *702:20 0.248577
3 *702:18 *702:19 1.4
4 *702:17 *702:18 1.1186
5 *702:15 *702:17 1.4
6 *702:14 *1377:Y 1.4
7 *702:12 *702:15 0.124288
8 *702:12 *702:14 2.48577
9 *702:11 *1374:A 1.4
10 *702:10 *702:12 1.4
11 *702:9 *702:11 0.870018
12 *702:8 *702:10 0.870021
13 *702:8 *702:9 1.4
14 *702:7 *702:8 0.372866
15 *702:6 *702:7 1.4
16 *702:5 *702:6 1.49146
17 *702:4 *702:5 1.4
18 *702:3 *702:4 3.48007
19 *702:2 *702:3 1.4
20 *702:1 *702:2 0.124289
21 *1373:A0 *702:1 1.4
*END

*D_NET *703 0.000580141

*CONN
*I *1373:B0 I *C 78.445 16.095 *L 0.0028 *D OAI21X1
*I *1376:Y O *C 78.445 11.165 *L 0 *D AOI22X1

*CAP
1 *703:1 0.000290071
2 *703:2 0.000290071

*RES
1 *703:2 *1376:Y 1.4
2 *703:1 *703:2 2.11291
3 *1373:B0 *703:1 1.4
*END

*D_NET *704 0.000506669

*CONN
*I *1372:A I *C 62.495 13.195 *L 0.0017 *D MXI2XL
*I *1375:Y O *C 64.85 13.135 *L 0 *D NOR2BXL

*CAP
1 *704:1 4.02754e-05
2 *704:2 4.02754e-05
3 *704:3 0.000166187
4 *704:4 0.000166187
5 *704:5 4.44419e-05
6 *704:6 4.68723e-05
7 *704:7 2.43041e-06

*RES
1 *704:7 *1375:Y 1.4
2 *704:6 *704:7 0.0150003
3 *704:5 *704:6 0.274291
4 *704:4 *704:5 1.4
5 *704:3 *704:4 0.99431
6 *704:2 *704:3 1.4
7 *704:1 *704:2 0.248577
8 *1372:A *704:1 1.4
*END

*D_NET *705 0.000855954

*CONN
*I *1371:A2 I *C 73.225 7.685 *L 0.00279 *D OAI31X1
*I *1374:Y O *C 70.905 10.295 *L 0 *D NOR2XL

*CAP
1 *705:1 4.02754e-05
2 *705:2 4.02754e-05
3 *705:3 0.000166187
4 *705:4 0.000166187
5 *705:5 0.000221515
6 *705:6 0.000221515

*RES
1 *705:6 *1374:Y 1.4
2 *705:5 *705:6 1.36717
3 *705:4 *705:5 1.4
4 *705:3 *705:4 0.99431
5 *705:2 *705:3 1.4
6 *705:1 *705:2 0.248577
7 *1371:A2 *705:1 1.4
*END

*D_NET *706 0.000365021

*CONN
*I *1370:D I *C 77.575 18.415 *L 0.00183 *D SDFFQX1
*I *1373:Y O *C 78.155 16.385 *L 0 *D OAI21X1

*CAP
1 *706:2 2.07733e-05
2 *706:3 2.07733e-05
3 *706:4 0.000140964
4 *706:5 0.000140964
5 *706:6 2.07733e-05
6 *706:7 2.07733e-05

*RES
1 *706:8 *1373:Y 1.4
2 *706:7 *706:8 1.4
3 *706:6 *706:7 0.124289
4 *706:5 *706:6 1.4
5 *706:4 *706:5 0.870018
6 *706:3 *706:4 1.4
7 *706:2 *706:3 0.124289
8 *706:1 *706:2 1.4
9 *1370:D *706:1 1.4
*END

*D_NET *707 0.000775403

*CONN
*I *1368:D I *C 59.885 15.805 *L 0.00183 *D SDFFQX1
*I *1372:Y O *C 62.205 12.615 *L 0 *D MXI2XL

*CAP
1 *707:2 0.000166187
2 *707:3 0.000166187
3 *707:4 0.000221515
4 *707:5 0.000221515

*RES
1 *707:5 *1372:Y 1.4
2 *707:4 *707:5 1.36717
3 *707:3 *707:4 1.4
4 *707:2 *707:3 0.99431
5 *707:1 *707:2 1.4
6 *1368:D *707:1 1.4
*END

*D_NET *708 0.000618115

*CONN
*I *1369:B0 I *C 76.995 7.975 *L 0.00273 *D OAI2BB1X1
*I *1371:Y O *C 73.805 7.395 *L 0 *D OAI31X1

*CAP
1 *708:1 2.01377e-05
2 *708:2 2.01377e-05
3 *708:3 0.000228507
4 *708:4 0.000228507
5 *708:5 6.04132e-05
6 *708:6 6.04132e-05

*RES
1 *708:6 *1371:Y 1.4
2 *708:5 *708:6 0.372865
3 *708:4 *708:5 1.4
4 *708:3 *708:4 1.36718
5 *708:2 *708:3 1.4
6 *708:1 *708:2 0.124288
7 *1369:B0 *708:1 1.4
*END

*D_NET *709 0.000446844

*CONN
*I *1367:D I *C 75.255 5.365 *L 0.00183 *D SDFFQX1
*I *1369:Y O *C 76.125 7.685 *L 0 *D OAI2BB1X1

*CAP
1 *709:2 2.07733e-05
2 *709:3 2.07733e-05
3 *709:4 0.000161102
4 *709:5 0.000161102
5 *709:6 4.15467e-05
6 *709:7 4.15467e-05

*RES
1 *709:8 *1369:Y 1.4
2 *709:7 *709:8 1.4
3 *709:6 *709:7 0.248578
4 *709:5 *709:6 1.4
5 *709:4 *709:5 0.994306
6 *709:3 *709:4 1.4
7 *709:2 *709:3 0.124289
8 *709:1 *709:2 1.4
9 *1367:D *709:1 1.4
*END

*D_NET *710 0.000696124

*CONN
*I *1364:A I *C 69.455 13.195 *L 0.00157 *D NAND2XL
*I *1365:Y O *C 72.065 15.515 *L 0 *D NAND3X1

*CAP
1 *710:1 2.01377e-05
2 *710:2 2.01377e-05
3 *710:3 0.00018696
4 *710:4 0.00018696
5 *710:5 0.000140964
6 *710:6 0.000140964

*RES
1 *710:6 *1365:Y 1.4
2 *710:5 *710:6 0.870018
3 *710:4 *710:5 1.4
4 *710:3 *710:4 1.1186
5 *710:2 *710:3 1.4
6 *710:1 *710:2 0.124288
7 *1364:A *710:1 1.4
*END

*D_NET *711 0.000790327

*CONN
*I *1360:A0 I *C 66.265 5.655 *L 0.00155 *D AO21X1
*I *1361:B0 I *C 66.555 7.685 *L 0.00282 *D OAI31X1
*I *1362:Y O *C 69.3725 7.685 *L 0 *D CLKINVX1

*CAP
1 *711:1 0.000120826
2 *711:2 0.000120826
3 *711:3 2.07733e-05
4 *711:4 0.000228507
5 *711:5 0.000207733
6 *711:6 2.01377e-05
7 *711:7 2.01377e-05
8 *711:8 2.01377e-05
9 *711:9 2.5693e-05
10 *711:11 5.55523e-06

*RES
1 *711:11 *1362:Y 1.4
2 *711:9 *711:11 0.0342864
3 *711:8 *1361:B0 1.4
4 *711:7 *711:9 0.124288
5 *711:6 *711:8 0.124288
6 *711:5 *711:7 1.4
7 *711:4 *711:6 1.4
8 *711:4 *711:5 1.24289
9 *711:3 *711:4 0.124289
10 *711:2 *711:3 1.4
11 *711:1 *711:2 0.74573
12 *1360:A0 *711:1 1.4
*END

*D_NET *712 0.00242506

*CONN
*I *1359:D I *C 83.955 7.975 *L 0.00183 *D SDFFQX1
*I *1361:Y O *C 66.845 7.395 *L 0 *D OAI31X1

*CAP
1 *712:1 1.7063e-05
2 *712:2 1.7063e-05
3 *712:3 0.00117533
4 *712:4 0.00117533
5 *712:5 2.01377e-05
6 *712:6 2.01377e-05

*RES
1 *712:6 *1361:Y 1.4
2 *712:5 *712:6 0.124288
3 *712:4 *712:5 1.4
4 *712:3 *712:4 7.33293
5 *712:2 *712:3 1.4
6 *712:1 *712:2 0.124289
7 *1359:D *712:1 1.4
*END

*D_NET *713 0.00335567

*CONN
*I *1358:D I *C 92.365 5.365 *L 0.00183 *D SDFFQX1
*I *1360:Y O *C 67.715 5.945 *L 0 *D AO21X1

*CAP
1 *713:1 1.7063e-05
2 *713:2 1.7063e-05
3 *713:3 0.00164063
4 *713:4 0.00164063
5 *713:5 2.01377e-05
6 *713:6 2.01377e-05

*RES
1 *713:6 *1360:Y 1.4
2 *713:5 *713:6 0.124288
3 *713:4 *713:5 1.4
4 *713:3 *713:4 10.5643
5 *713:2 *713:3 1.4
6 *713:1 *713:2 0.124289
7 *1358:D *713:1 1.4
*END

*D_NET *714 0.00324532

*CONN
*I *1376:A0 I *C 77.865 10.585 *L 0.00264 *D AOI22X1
*I *1369:A0N I *C 77.285 7.685 *L 0.00173 *D OAI2BB1X1
*I *1371:A1 I *C 72.935 7.975 *L 0.00267 *D OAI31X1
*I *1362:A I *C 69.745 7.685 *L 0.00273 *D CLKINVX1
*I *1363:Y O *C 63.655 10.295 *L 0 *D NOR2XL
*I *1375:B I *C 65.105 12.905 *L 0.00175 *D NOR2BXL

*CAP
1 *714:1 0.00018124
2 *714:2 0.00018124
3 *714:3 4.15467e-05
4 *714:4 0.000353147
5 *714:5 2.01377e-05
6 *714:6 0.000540107
7 *714:7 2.01377e-05
8 *714:9 0.00049856
9 *714:12 2.01377e-05
10 *714:13 0.000270053
11 *714:14 2.01377e-05
12 *714:15 0.000140964
13 *714:17 0.000140964
14 *714:18 4.15467e-05
15 *714:19 0.000166187
16 *714:20 0.000201377
17 *714:21 0.00012464
18 *714:22 0.000201377
19 *714:23 2.01377e-05
20 *714:24 2.07733e-05
21 *714:25 2.01377e-05
22 *714:26 2.07733e-05

*RES
1 *714:28 *1375:B 1.4
2 *714:26 *714:28 1.4
3 *714:25 *1363:Y 1.4
4 *714:24 *714:26 0.124289
5 *714:23 *714:25 0.124288
6 *714:22 *714:24 1.4
7 *714:21 *714:23 1.4
8 *714:20 *714:22 1.24288
9 *714:19 *714:21 0.745733
10 *714:19 *714:20 1.4
11 *714:18 *714:19 0.248578
12 *714:17 *714:18 1.4
13 *714:15 *714:17 0.870018
14 *714:14 *1362:A 1.4
15 *714:13 *714:15 1.4
16 *714:12 *714:14 0.124288
17 *714:9 *714:13 1.61575
18 *714:9 *714:12 1.4
19 *714:8 *1371:A1 1.4
20 *714:7 *1369:A0N 1.4
21 *714:6 *714:9 1.36718
22 *714:6 *714:8 1.4
23 *714:5 *714:7 0.124288
24 *714:4 *714:6 1.86433
25 *714:4 *714:5 1.4
26 *714:3 *714:4 0.248578
27 *714:2 *714:3 1.4
28 *714:1 *714:2 1.11859
29 *1376:A0 *714:1 1.4
*END

*D_NET *715 0.00108739

*CONN
*I *1357:A I *C 64.225 18.3525 *L 0.00163 *D INVXL
*I *1377:B I *C 67.715 18.125 *L 0.00163 *D NAND4BXL
*I *1366:Y O *C 71.195 18.705 *L 0 *D OR3X1

*CAP
1 *715:1 6.94404e-07
2 *715:2 4.86083e-06
3 *715:3 4.16643e-06
4 *715:4 0.00024928
5 *715:5 0.00049856
6 *715:6 0.00024928
7 *715:7 2.01377e-05
8 *715:8 2.01377e-05
9 *715:9 2.01377e-05
10 *715:10 2.01377e-05

*RES
1 *715:10 *1366:Y 1.4
2 *715:9 *1377:B 1.4
3 *715:8 *715:10 0.124288
4 *715:7 *715:9 0.124288
5 *715:6 *715:8 1.4
6 *715:5 *715:7 1.4
7 *715:5 *715:6 1.49147
8 *715:4 *715:5 1.49147
9 *715:3 *715:4 1.4
10 *715:2 *715:3 0.0257148
11 *715:1 *715:2 0.0042858
12 *1357:A *715:1 1.4
*END

*D_NET *716 0.00187809

*CONN
*I *1377:D I *C 68.585 18.125 *L 0.00174 *D NAND4BXL
*I *1380:AN I *C 67.715 10.875 *L 0.0018 *D NOR3BX1
*I *1364:Y O *C 68.875 12.615 *L 0 *D NAND2XL
*I *1363:B I *C 63.945 10.585 *L 0.00171 *D NOR2XL

*CAP
1 *716:2 4.15467e-05
2 *716:3 4.15467e-05
3 *716:4 0.00026179
4 *716:5 0.00026179
5 *716:6 2.07733e-05
6 *716:7 2.07733e-05
7 *716:8 0.000120826
8 *716:9 0.000241653
9 *716:10 8.30933e-05
10 *716:11 0.000140964
11 *716:12 8.30933e-05
12 *716:14 2.01377e-05
13 *716:16 0.000270053
14 *716:18 0.000270053

*RES
1 *716:19 *1363:B 1.4
2 *716:18 *716:19 1.4
3 *716:16 *716:18 1.61575
4 *716:15 *1364:Y 1.4
5 *716:14 *716:16 1.4
6 *716:12 *716:15 1.4
7 *716:11 *716:14 0.124288
8 *716:11 *1380:AN 1.4
9 *716:10 *716:12 0.497155
10 *716:9 *716:11 0.74573
11 *716:9 *716:10 1.4
12 *716:8 *716:9 0.74573
13 *716:7 *716:8 1.4
14 *716:6 *716:7 0.124289
15 *716:5 *716:6 1.4
16 *716:4 *716:5 1.61575
17 *716:3 *716:4 1.4
18 *716:2 *716:3 0.248578
19 *716:1 *716:2 1.4
20 *1377:D *716:1 1.4
*END

*D_NET *717 0.00471159

*CONN
*I *1389:A0 I *C 8.555 36.685 *L 0.00158 *D AO22XL
*I *1391:A0 I *C 7.685 39.295 *L 0.00158 *D AO22XL
*I *1390:A0 I *C 11.745 39.295 *L 0.00158 *D AO22XL
*I *1388:A0 I *C 14.935 36.685 *L 0.00158 *D AO22XL
*I *1392:Y O *C 25.955 25.955 *L 0 *D NOR2XL

*CAP
1 *717:2 4.07304e-05
2 *717:3 4.07304e-05
3 *717:4 0.00018077
4 *717:5 0.000220941
5 *717:6 4.0171e-05
6 *717:7 2.03652e-05
7 *717:8 0.000264747
8 *717:9 2.03652e-05
9 *717:10 0.000264747
10 *717:12 4.0171e-05
11 *717:14 0.00018077
12 *717:16 0.000140599
13 *717:17 0.000224017
14 *717:18 0.000224017
15 *717:19 4.0171e-05
16 *717:20 0.000781341
17 *717:22 0.00074117
18 *717:23 0.000622885
19 *717:24 0.000622885

*RES
1 *717:25 *1392:Y 1.4
2 *717:24 *717:25 1.4
3 *717:23 *717:24 4.72297
4 *717:22 *717:23 1.4
5 *717:20 *717:22 4.59848
6 *717:20 *1388:A0 1.4
7 *717:19 *717:20 0.248567
8 *717:18 *717:19 1.4
9 *717:17 *717:18 1.36711
10 *717:16 *717:17 1.4
11 *717:14 *717:16 0.869983
12 *717:14 *1390:A0 1.4
13 *717:12 *717:14 0.248567
14 *717:11 *1391:A0 1.4
15 *717:10 *717:12 1.4
16 *717:9 *717:11 1.4
17 *717:8 *717:10 1.61568
18 *717:7 *717:9 0.124283
19 *717:6 *717:8 1.4
20 *717:5 *717:7 1.4
21 *717:5 *717:6 0.248567
22 *717:4 *717:5 1.11855
23 *717:3 *717:4 1.4
24 *717:2 *717:3 0.248566
25 *717:1 *717:2 1.4
26 *1389:A0 *717:1 1.4
*END

*D_NET *718 0.000604803

*CONN
*I *1387:D I *C 7.105 41.905 *L 0.00183 *D SDFFQX1
*I *1391:Y O *C 5.945 38.715 *L 0 *D AO22XL

*CAP
1 *718:1 0.000200855
2 *718:2 0.000200855
3 *718:3 8.14607e-05
4 *718:4 8.14607e-05
5 *718:5 2.00855e-05
6 *718:6 2.00855e-05

*RES
1 *718:6 *1391:Y 1.4
2 *718:5 *718:6 0.124283
3 *718:4 *718:5 1.4
4 *718:3 *718:4 0.497132
5 *718:2 *718:3 1.4
6 *718:1 *718:2 1.24283
7 *1387:D *718:1 1.4
*END

*D_NET *719 0.00093568

*CONN
*I *1386:D I *C 16.095 39.295 *L 0.00183 *D SDFFQX1
*I *1390:Y O *C 10.005 38.715 *L 0 *D AO22XL

*CAP
1 *719:2 0.000427669
2 *719:3 0.000427669
3 *719:4 4.0171e-05
4 *719:5 4.0171e-05

*RES
1 *719:5 *1390:Y 1.4
2 *719:4 *719:5 0.248567
3 *719:3 *719:4 1.4
4 *719:2 *719:3 2.60995
5 *719:1 *719:2 1.4
6 *1386:D *719:1 1.4
*END

*D_NET *720 0.000686264

*CONN
*I *1384:D I *C 12.035 34.075 *L 0.00289 *D SDFFHQX4
*I *1389:Y O *C 10.295 37.265 *L 0 *D AO22XL

*CAP
1 *720:1 2.00855e-05
2 *720:2 2.00855e-05
3 *720:3 0.000122191
4 *720:4 0.000122191
5 *720:5 0.000200855
6 *720:6 0.000200855

*RES
1 *720:6 *1389:Y 1.4
2 *720:5 *720:6 1.24283
3 *720:4 *720:5 1.4
4 *720:3 *720:4 0.745699
5 *720:2 *720:3 1.4
6 *720:1 *720:2 0.124283
7 *1384:D *720:1 1.4
*END

*D_NET *721 0.00120569

*CONN
*I *1385:D I *C 12.905 28.855 *L 0.00183 *D SDFFQX1
*I *1388:Y O *C 13.195 37.265 *L 0 *D AO22XL

*CAP
1 *721:1 0.00058248
2 *721:2 0.00058248
3 *721:3 2.03652e-05
4 *721:4 2.03652e-05

*RES
1 *721:5 *1388:Y 1.4
2 *721:4 *721:5 1.4
3 *721:3 *721:4 0.124283
4 *721:2 *721:3 1.4
5 *721:1 *721:2 3.60421
6 *1385:D *721:1 1.4
*END

*D_NET *722 0.00650913

*CONN
*I *1389:B1 I *C 9.135 36.685 *L 0.00171 *D AO22XL
*I *1391:B1 I *C 7.105 39.295 *L 0.00171 *D AO22XL
*I *1390:B1 I *C 11.165 39.295 *L 0.00171 *D AO22XL
*I *1388:B1 I *C 14.355 36.685 *L 0.00171 *D AO22XL
*I *1393:Y O *C 28.865 26.535 *L 0 *D NOR2BX1
*I *1383:D I *C 30.015 23.635 *L 0.00183 *D SDFFQX1

*CAP
1 *722:2 6.10956e-05
2 *722:3 6.10956e-05
3 *722:4 0.00018077
4 *722:5 0.000241026
5 *722:6 6.02566e-05
6 *722:7 8.14607e-05
7 *722:8 0.000203652
8 *722:9 8.14607e-05
9 *722:10 0.000203652
10 *722:12 6.02566e-05
11 *722:14 0.000241026
12 *722:16 0.00018077
13 *722:17 0.000224017
14 *722:18 0.00128836
15 *722:19 0.00106434
16 *722:21 0.000877602
17 *722:23 0.00099565
18 *722:24 8.64633e-07
19 *722:25 0.000117183
20 *722:27 7.15677e-05
21 *722:28 7.15677e-05
22 *722:29 7.07299e-05
23 *722:30 7.07299e-05

*RES
1 *722:30 *1383:D 1.4
2 *722:29 *722:30 0.497134
3 *722:28 *722:29 1.4
4 *722:27 *722:28 0.497155
5 *722:25 *722:27 1.4
6 *722:24 *1393:Y 1.4
7 *722:23 *722:25 0.745709
8 *722:23 *722:24 0.00428581
9 *722:21 *722:23 4.3501
10 *722:20 *1388:B1 1.4
11 *722:19 *722:21 1.4
12 *722:18 *722:20 1.4
13 *722:18 *722:19 6.21415
14 *722:17 *722:18 1.36711
15 *722:16 *722:17 1.4
16 *722:14 *722:16 1.11855
17 *722:14 *1390:B1 1.4
18 *722:12 *722:14 0.37285
19 *722:11 *1391:B1 1.4
20 *722:10 *722:12 1.4
21 *722:9 *722:11 1.4
22 *722:8 *722:10 1.24283
23 *722:7 *722:9 0.497132
24 *722:6 *722:8 1.4
25 *722:5 *722:7 1.4
26 *722:5 *722:6 0.37285
27 *722:4 *722:5 1.11855
28 *722:3 *722:4 1.4
29 *722:2 *722:3 0.372849
30 *722:1 *722:2 1.4
31 *1389:B1 *722:1 1.4
*END

